Cs   Pb    I                            
   1.0000000000000000     
    16.8565235137999991    0.0000000000000000    0.0000000000000000
     0.0000000000000000   17.9457893372000008    0.0000000000000000
     0.0000000000000000    0.0000000000000000   12.4745693207000006
  Cs              Pb              I             
    16    16    47
Direct
     0.4777138150720741    0.2163311976264464    0.2566688738370061
     0.4934261064593100    0.7205266539466241    0.2386000068925344
     0.9908442540016429    0.2133718786432904    0.2525666416518387
     0.9927851494203002    0.7111169292994093    0.2514280106187783
     0.0045398417837754    0.2867154070253420    0.7509039205336692
     0.0146960087525796    0.7857372372495764    0.7468774012076259
     0.5158227804239747    0.2960209241564807    0.7510994037784016
     0.5195912472149201    0.7971018275308284    0.7538868957615480
     0.2332601858483476    0.0393264936555754    0.7466253169699708
     0.2341876195200601    0.5322227894282515    0.7583004527453715
     0.7408374059919975    0.0419845172140726    0.7515080107010030
     0.7288363695606287    0.5426502088355770    0.7427154075607713
     0.2558829763827165    0.4687326613984447    0.2457250080250390
     0.2673542242836283    0.9530506930184094    0.2502967773075994
     0.7605313844549453    0.4608150604969283    0.2493784406999463
     0.7654886875547133    0.9673266716643647    0.2539075227227934
     0.0036318235611131   -0.0005574988633412    0.4984213149008671
    -0.0062419072203613    0.5004923192609747    0.5041045750364821
     0.4982610863244940    0.0037245984371872    0.5009310667466732
     0.4991454261267829    0.5093450469897663    0.4991280704369400
     0.2482494728877364    0.2519968922812214    0.5012334650104340
     0.2583941096123059    0.7472873172895118    0.5050191317497034
     0.7460853540238543    0.2500709194590615    0.4982250527168722
     0.7499827334592211    0.7549554618946269    0.4993571719490751
     0.0021791516293848    1.0006173774898719    0.0001240679337638
     0.9947467656954485    0.5000270940685019    0.0012746574297326
     0.4993451826636600    0.0046175191675999    1.0007916626076900
     0.5026678903003933    0.5020823171245065    0.9983045288797092
     0.2510589701499167    0.2507024560976427   -0.0013344882534088
     0.2507756566806696    0.7489663209025244    0.9981951526622871
     0.7479250248615456    0.2504293639162309    0.0021914645480514
     0.7518628665273318    0.7542893079761798   -0.0003786977082114
     0.0940227436989407    0.1548110561972092    0.5404795195031998
     0.1024712921098273    0.6465250907564364    0.5392123886810251
     0.5871095793774952    0.1579764866310444    0.5389435760564610
     0.5877152859654985    0.6638401766472860    0.5329184016473045
     0.4114553739204983    0.8452997048955393    0.4633780660419398
     0.9015648079200492    0.3479330416296363    0.4610351133512781
     0.9089710390188779    0.8469966924315498    0.4605445722720539
     0.3390216067973171    0.0966229108374055    0.4590803582545971
     0.3933710000565560    0.3645613217260790    0.4589431230749563
     0.8491341711180905    0.1018766717961551    0.4678583719850632
     0.8382644086359572    0.5985515392908137    0.4613449373285568
     0.1485412289648926    0.4013199612548186    0.5440346116291669
     0.1589381011524389    0.8929763733654859    0.5326961179435190
     0.6448044148627944    0.4058136909734427    0.5282499515166778
     0.6582490331913607    0.9094240470664987    0.5387229094275250
     0.4069408771063666    0.3504343254206749    0.0362166343866473
     0.4057109103069561    0.8495523660198164    0.0324582999090616
     0.9054156407077477    0.3454351811978930    0.0411011409850062
     0.9102762541437315    0.8473017041027996    0.0405219036134840
     0.0945578914487254    0.1548364508858159    0.9600334882964302
     0.0931876671570751    0.6517601249544326    0.9614253661691523
     0.5891501535059972    0.1578668368086912    0.9632463923784151
     0.5949894999871779    0.6563832956009656    0.9609570052863822
     0.1517593973851583    0.4011962776051429    0.9646066453644749
     0.1583325003338228    0.9025764734592604    0.9606645949987146
     0.6599490321509931    0.4071025251510911    0.9624005173088941
     0.6585194706963385    0.9080184453752480    0.9642354336106821
     0.3404353488785479    0.0961854461429340    0.0429607743294066
     0.3448161559138590    0.5961380242026743    0.0336218533100202
     0.8456280675356426    0.0990389677302551    0.0371151584619593
     0.8410647940568634    0.5985560110130913    0.0401858055353329
     0.4627334178602423    0.5065592688135381    0.7476721264532394
     0.4595551763626421    1.0034636877253500    0.7506076362495067
     0.9527212312029573    0.4975994892519257    0.7526115861992754
     0.9670785367106899    0.9964460845563489    0.7496083244371162
     0.0437911893777709    0.0035208341147740    0.2494386562199485
     0.0304956944446771    0.4991708182796206    0.2525829932162192
     0.5372460208301895    1.0053297440532407    0.2507592465893521
     0.5336461583301585    0.5102384567883876    0.2488208966505327
     0.2144935998702852    0.2578050532028021    0.2497019188833481
     0.2260378127629979    0.7360388103830988    0.2528803903678879
     0.7059828992689093    0.2505836894472011    0.2497872370801676
     0.7152347744519312    0.7576261364158120    0.2493279533245259
     0.2921432158391753    0.2492862822549829    0.7494451041792032
     0.2977649205049616    0.7386349827408180    0.7518412918699389
     0.7786743806329711    0.2537187383700564    0.7499119548523988
     0.7872509841287008    0.7510162140287665    0.7492389160491053

             NaN             NaN             NaN
             NaN             NaN             NaN
             NaN             NaN             NaN
             NaN             NaN             NaN
             NaN             NaN             NaN
             NaN             NaN             NaN
             NaN             NaN             NaN
             NaN             NaN             NaN
             NaN             NaN             NaN
             NaN             NaN             NaN
             NaN             NaN             NaN
             NaN             NaN             NaN
             NaN             NaN             NaN
             NaN             NaN             NaN
             NaN             NaN             NaN
             NaN             NaN             NaN
             NaN             NaN             NaN
             NaN             NaN             NaN
             NaN             NaN             NaN
             NaN             NaN             NaN
             NaN             NaN             NaN
             NaN             NaN             NaN
             NaN             NaN             NaN
             NaN             NaN             NaN
             NaN             NaN             NaN
             NaN             NaN             NaN
             NaN             NaN             NaN
             NaN             NaN             NaN
             NaN             NaN             NaN
             NaN             NaN             NaN
             NaN             NaN             NaN
             NaN             NaN             NaN
             NaN             NaN             NaN
             NaN             NaN             NaN
             NaN             NaN             NaN
             NaN             NaN             NaN
             NaN             NaN             NaN
             NaN             NaN             NaN
             NaN             NaN             NaN
             NaN             NaN             NaN
             NaN             NaN             NaN
             NaN             NaN             NaN
             NaN             NaN             NaN
             NaN             NaN             NaN
             NaN             NaN             NaN
             NaN             NaN             NaN
             NaN             NaN             NaN
             NaN             NaN             NaN
             NaN             NaN             NaN
             NaN             NaN             NaN
             NaN             NaN             NaN
             NaN             NaN             NaN
             NaN             NaN             NaN
             NaN             NaN             NaN
             NaN             NaN             NaN
             NaN             NaN             NaN
             NaN             NaN             NaN
             NaN             NaN             NaN
             NaN             NaN             NaN
             NaN             NaN             NaN
             NaN             NaN             NaN
             NaN             NaN             NaN
             NaN             NaN             NaN
             NaN             NaN             NaN
             NaN             NaN             NaN
             NaN             NaN             NaN
             NaN             NaN             NaN
             NaN             NaN             NaN
             NaN             NaN             NaN
             NaN             NaN             NaN
             NaN             NaN             NaN
             NaN             NaN             NaN
             NaN             NaN             NaN
             NaN             NaN             NaN
             NaN             NaN             NaN
             NaN             NaN             NaN
             NaN             NaN             NaN
             NaN             NaN             NaN
             NaN             NaN             NaN
