Cs   Pb    I
   1.0000000000000000     
  16.8565235137999991   0.0000000000000000   0.0000000000000000
   0.0000000000000000  17.9457893372000008   0.0000000000000000
   0.0000000000000000   0.0000000000000000  12.4745693207000006
Cs   Pb    I
16  16  47  
Direct
  0.4825456221810920  0.2071907676692320  0.2502798645390100  
  0.4892408591375460  0.7140747494548090  0.2400661533519470  
  0.9885963555579100  0.2136898774264320  0.2511109074409750  
  0.9946980206101370  0.7148891975762410  0.2523222748126770  
  0.0113216830081342  0.2904600741056740  0.7514353974609310  
  0.0111223674323853  0.7866638357577710  0.7467936024668300  
  0.5138545663193030  0.2902477793858300  0.7516753857535220  
  0.5204460223173870  0.7924159014227430  0.7499042238593110  
  0.2323358852825810  0.0376294972011237  0.7474245331888620  
  0.2242969522496310  0.5362358378675580  0.7616438103154050  
  0.7408856502440170  0.0418109062712801  0.7501248832452920  
  0.7393865845605420  0.5389011792701910  0.7459940639556920  
  0.2660551906155110  0.4605225475700860  0.2506923313627420  
  0.2666069767709020  0.9527981557194490  0.2499983617943970  
  0.7555354301962610  0.4646730552929130  0.2506168717337330  
  0.7647667406155920  0.9641809995079170  0.2519822763034580  
  0.0021041711510392  0.0001552089412442  0.4984208688540970  
  0.0001234426238881  0.5007689516743240  0.4995832505166650  
  0.4995187995853390  0.0003323831572501  0.5005253090724080  
  0.4963783698338630  0.5014088436527190  0.5022596311389120  
  0.2504803424614440  0.2490971965918620  0.5014482361288159  
  0.2571482020224140  0.7479994840296200  0.5054932540301280  
  0.7477756536430040  0.2504733487178680  0.4982013813010510  
  0.7487299846286390  0.7519116534883140  0.4986037527545050  
  0.0001760739026011  0.9994792371248880  0.0008441097428431  
  0.9993521142794680  0.5007679838918260  0.0039692135891585  
  0.5004842650942440  0.0003504583830107  0.9984976970354180  
  0.4980548533017240  0.4990641433190890  0.9958698168589210  
  0.2504845791918770  0.2465405917620490  0.0004955075817179  
  0.2513206900258280  0.7486574245527460  0.9989113218069010  
  0.7488666736965900  0.2511015883738640  0.0006397043839570  
  0.7495848654230810  0.7508662945168399  0.0001470007275799  
  0.0929295638546321  0.1561682825335780  0.5388819600047440  
  0.0998151736057267  0.6508694144515060  0.5390122417970740  
  0.5913461403645069  0.1541673710907570  0.5383514095959900  
  0.5895154010948570  0.6539219324933900  0.5324992929696610  
  0.4132633500923290  0.8423010411623650  0.4632430491648170  
  0.9027138330005400  0.3508328036617810  0.4604080699966320  
  0.9059719529909460  0.8476533690420500  0.4615950040374770  
  0.3397773272888290  0.0931651509464118  0.4614470869350810  
  0.3966681195451830  0.3821360985148980  0.4614604397088510  
  0.8473729292720260  0.1012512335868860  0.4637619892373270  
  0.8449160368358331  0.5996210614031130  0.4602249826147190  
  0.1590405657818010  0.4045983142664230  0.5352919770722120  
  0.1578237799247970  0.8944141298841261  0.5323685948795430  
  0.6477606834387610  0.4057688932014760  0.5350121948687910  
  0.6591141861164970  0.9072027646819550  0.5387476813342430  
  0.4071012198242490  0.3444430143999850  0.0370985046449661  
  0.4080297093114350  0.8461752140498360  0.0312200254343935  
  0.9040487552356710  0.3495025538924710  0.0424418924055203  
  0.9062923419276600  0.8463479654987860  0.0405530679302331  
  0.0921173725676283  0.1531666750423920  0.9606637580256890  
  0.0914712559955859  0.6559219953802400  0.9648542941538950  
  0.5927585590924880  0.1536779935768640  0.9622667530357349  
  0.5925463528990140  0.6522059324197610  0.9604937797662100  
  0.1543262315406150  0.3995614303939450  0.9715659935481680  
  0.1560965940942650  0.9007004680504240  0.9617278192159801  
  0.6570532127596560  0.4055105509418130  0.9593217651294590  
  0.6591645900990600  0.9060099393571620  0.9611067502773880  
  0.3409286210053040  0.0923710860642615  0.0392054515289146  
  0.3404842582982540  0.5929024239898770  0.0348851578341467  
  0.8451459121956690  0.0993581831776496  0.0392832393534945  
  0.8438537924032300  0.5984850755189580  0.0411379697645131  
  0.4511963541845390  0.4993861797095750  0.7472525981968450  
  0.4594154642160790  0.9998149171498480  0.7494794089294670  
  0.9659291787950220  0.5012341485058091  0.7518985129371100  
  0.9664499353398880  0.9975121471436520  0.7496612047090990  
  0.0424891126632119  0.0029843671335783  0.2496101791195570  
  0.0418756586964761  0.5045098063360171  0.2517508497374190  
  0.5364722069062470  0.9978614557841040  0.2496652360065850  
  0.5252638240845540  0.5022005288813390  0.2490909681153750  
  0.2154298007422000  0.2511920967427410  0.2508907207620940  
  0.2274002694191850  0.7378199855883170  0.2535062646165540  
  0.7076095340945940  0.2535950463027990  0.2494935477794800  
  0.7113000588990200  0.7543907258929320  0.2494084905012530  
  0.2881137574423180  0.2487007982390850  0.7505160167568830  
  0.2970775924629050  0.7399550426527240  0.7522642797432300  
  0.7851729308930540  0.2529832033973630  0.7496118889796930  
  0.7849409620254379  0.7493527140452509  0.7492981934499240  
