Cs   Pb    I                            
   1.0000000000000000     
    16.8565235137999991    0.0000000000000000    0.0000000000000000
     0.0000000000000000   17.9457893372000008    0.0000000000000000
     0.0000000000000000    0.0000000000000000   12.4745693207000006
  Cs              Pb              I             
    16    16    47
Direct
     0.4795202060354042    0.2132987789688491    0.2515425462723844
     0.4915156546799219    0.7132770184991463    0.2411766733756503
     0.9969346322676645    0.2137354216064141    0.2528023598972265
     0.9896181350592628    0.7080009334453268    0.2531983661918185
    -0.0019772392001232    0.2790571744923747    0.7522836274305902
     0.0153324484987155    0.7851551682555760    0.7510120954290020
     0.5275985163073570    0.2902792844773714    0.7635217009151406
     0.5177128211152114    0.7962473721850331    0.7544281381551053
     0.2362418427656595    0.0383957269787631    0.7437076251087595
     0.2410266856099004    0.5300736546984187    0.7568196456857933
     0.7421098209910810    0.0370688626845033    0.7511496571525910
     0.7253103816677816    0.5417105983905204    0.7425672275915381
     0.2430461961768534    0.4794302574535271    0.2097580820720859
     0.2683947308451112    0.9502059735285719    0.2513346706747592
     0.7669487977663195    0.4570693377897573    0.2518759568263731
     0.7641715652378399    0.9662070413032681    0.2513342866091043
     0.0083952509531742   -0.0043243485345845    0.4978447235285531
    -0.0085483728754604    0.4976165036254822    0.5057357664841100
     0.4942713385966419    1.0003375132431671    0.4994437683691661
     0.5049260968767177    0.5080553102743538    0.5027796720247413
     0.2481134655969275    0.2553727411706360    0.5044519963232003
     0.2560027681459213    0.7350609199516238    0.5004965995985187
     0.7476291440814151    0.2433655975024537    0.4983846693579769
     0.7499559559364709    0.7552690449813235    0.4982300089337255
     0.0056885998278605   -0.0007308527293203    0.9999946283003730
     0.9928878370367024    0.4973857658397845   -0.0025544340032685
     0.4981668499900845    1.0005242265274648    0.0013195636343365
     0.5105451957040666    0.5009740290317496    1.0025351554779083
     0.2537364555604673    0.2507041069578482    0.9966791819607630
     0.2510613068579264    0.7478361228843412    0.9954149814290900
     0.7505959780622073    0.2464788263735150    0.0049605794353027
     0.7543287575334868    0.7535429834673518   -0.0003436670826923
     0.1029690929800213    0.1536512818046156    0.5368575284149497
     0.0948570392828720    0.6455927346839549    0.5416277455650245
     0.5841085385065303    0.1549144345313124    0.5364923854025717
     0.5838254801776811    0.6623174681933194    0.5309139192266791
     0.4075321711585407    0.8409633035872310    0.4615213706440935
     0.9010605291040323    0.3424733666121732    0.4630735057397209
     0.9076941453260829    0.8476478273342856    0.4611880321533182
     0.3392860565123996    0.0991326908891530    0.4546851845231970
     0.3262002255669385    0.5424997116387140    0.4719087087757526
     0.8526692564508364    0.0960803570415459    0.4653455966989832
     0.8365232985547616    0.5974339114563101    0.4634632516518977
     0.1390204980724307    0.3927679072007736    0.5618079473505679
     0.1611324950805556    0.8879547070181310    0.5337764502252820
     0.6504335184236250    0.3947670385207028    0.5329843490688362
     0.6559465613945382    0.9091655391769061    0.5366006534043988
     0.4081111666513065    0.3525471754314604    0.0374266329807398
     0.4058840643776102    0.8458476574050461    0.0356235889753005
     0.9074927383618381    0.3409525599392125    0.0397094525533551
     0.9132484497278222    0.8463649463364471    0.0400499779542782
     0.0988376893454927    0.1528778485039793    0.9606507082520463
     0.0961892811920819    0.6455593640128201    0.9627542026246637
     0.5914123623825370    0.1525326774664388    0.9730147890705925
     0.5974178215161777    0.6575235356505794    0.9614708678939328
     0.1471668627833456    0.3952702015146647    0.9509492324976999
     0.1608777241872885    0.9021330336847309    0.9580728030106858
     0.6662149612560985    0.4055670065684228    0.9671744164780206
     0.6584762295920615    0.9066206711371581    0.9648466029288484
     0.3408875300527240    0.0955398040969078    0.0438773827761163
     0.3551769546666246    0.6014901717616961    0.0231466185078347
     0.8488273677819780    0.0967474124106187    0.0379021583461952
     0.8411856297050870    0.5971927552406580    0.0398300508740854
     0.4732433943900202    0.4984711874353411    0.7526125822256320
     0.4605614295037752    1.0032982986660379    0.7507455411840923
     0.9459525771069150    0.4928876951280906    0.7521392802358232
     0.9703662131115728   -0.0013061952798898    0.7487036508490442
     0.0471998135098754    0.0042066142180494    0.2492589772680459
     0.0223530796780243    0.4945483486107976    0.2522544645288032
     0.5357388975900599    1.0024174114974458    0.2507873912122979
     0.5403400026118130    0.5023683951006533    0.2536517193557218
     0.2219593952118348    0.2683837512602897    0.2507098288731388
     0.2214768042584083    0.7332324200761304    0.2490483352611506
     0.7069118431140433    0.2477734728575032    0.2514585976280110
     0.7143690126769096    0.7572566900268244    0.2490166743464340
     0.3028981458183841    0.2486128391712354    0.7480875201532783
     0.2954965967253123    0.7395554654401170    0.7480634837750368
     0.7740366751292883    0.2483787212907568    0.7517097418657073
     0.7873857795132740    0.7505227870888904    0.7486257964209619

             NaN             NaN             NaN
             NaN             NaN             NaN
             NaN             NaN             NaN
             NaN             NaN             NaN
             NaN             NaN             NaN
             NaN             NaN             NaN
             NaN             NaN             NaN
             NaN             NaN             NaN
             NaN             NaN             NaN
             NaN             NaN             NaN
             NaN             NaN             NaN
             NaN             NaN             NaN
             NaN             NaN             NaN
             NaN             NaN             NaN
             NaN             NaN             NaN
             NaN             NaN             NaN
             NaN             NaN             NaN
             NaN             NaN             NaN
             NaN             NaN             NaN
             NaN             NaN             NaN
             NaN             NaN             NaN
             NaN             NaN             NaN
             NaN             NaN             NaN
             NaN             NaN             NaN
             NaN             NaN             NaN
             NaN             NaN             NaN
             NaN             NaN             NaN
             NaN             NaN             NaN
             NaN             NaN             NaN
             NaN             NaN             NaN
             NaN             NaN             NaN
             NaN             NaN             NaN
             NaN             NaN             NaN
             NaN             NaN             NaN
             NaN             NaN             NaN
             NaN             NaN             NaN
             NaN             NaN             NaN
             NaN             NaN             NaN
             NaN             NaN             NaN
             NaN             NaN             NaN
             NaN             NaN             NaN
             NaN             NaN             NaN
             NaN             NaN             NaN
             NaN             NaN             NaN
             NaN             NaN             NaN
             NaN             NaN             NaN
             NaN             NaN             NaN
             NaN             NaN             NaN
             NaN             NaN             NaN
             NaN             NaN             NaN
             NaN             NaN             NaN
             NaN             NaN             NaN
             NaN             NaN             NaN
             NaN             NaN             NaN
             NaN             NaN             NaN
             NaN             NaN             NaN
             NaN             NaN             NaN
             NaN             NaN             NaN
             NaN             NaN             NaN
             NaN             NaN             NaN
             NaN             NaN             NaN
             NaN             NaN             NaN
             NaN             NaN             NaN
             NaN             NaN             NaN
             NaN             NaN             NaN
             NaN             NaN             NaN
             NaN             NaN             NaN
             NaN             NaN             NaN
             NaN             NaN             NaN
             NaN             NaN             NaN
             NaN             NaN             NaN
             NaN             NaN             NaN
             NaN             NaN             NaN
             NaN             NaN             NaN
             NaN             NaN             NaN
             NaN             NaN             NaN
             NaN             NaN             NaN
             NaN             NaN             NaN
             NaN             NaN             NaN
