Cs   Pb    I
   1.0000000000000000     
  16.8565235137999991   0.0000000000000000   0.0000000000000000
   0.0000000000000000  17.9457893372000008   0.0000000000000000
   0.0000000000000000   0.0000000000000000  12.4745693207000006
Cs   Pb    I
16  16  47  
Direct
  0.4829927589053820  0.2085220063461860  0.2511259946950870  
  0.4848205156877230  0.7062387992739760  0.2467213827597870  
  0.9924017657895871  0.2135374231320810  0.2502339492048260  
  0.9888598990506740  0.7151156598811500  0.2530029900633720  
  0.0102202150406754  0.2879055865284030  0.7483702793046449  
  0.0096185171618330  0.7913911107888580  0.7487498243341760  
  0.5227217155965250  0.2869308409292230  0.7597907567676500  
  0.5195276835870150  0.7894904871137380  0.7467739832965991  
  0.2376489624129050  0.0392508620056162  0.7484283059443020  
  0.2277717292480760  0.5404904253377300  0.7550065155770650  
  0.7376149032201270  0.0409668313563429  0.7505886402264250  
  0.7391646108027810  0.5379256243509120  0.7471089997783910  
  0.2607078130775240  0.4644095258504920  0.2434055728137000  
  0.2668542238545230  0.9563838865972230  0.2499825729719160  
  0.7548298869812410  0.4659679924645350  0.2533232586687220  
  0.7642431910780160  0.9620631135395140  0.2504699575172750  
  0.0012826877552570  0.0003898167061678  0.4980251322705130  
  0.0007214451194244  0.5012364783715880  0.4993154725833760  
  0.4998450619266990  0.9992474557862110  0.4998159653621100  
  0.4933809371692210  0.4984705582635410  0.5062812836946190  
  0.2517283243072230  0.2508889429593350  0.5020237846440450  
  0.2525114901120490  0.7497524801481890  0.5023401701506740  
  0.7492585562149831  0.2505245435894000  0.4989420505052420  
  0.7474073591432240  0.7505068674415940  0.4991350757725140  
  0.0006504455129246  0.0005298456244134  0.9998108327141680  
  0.9995943433972840  0.5011830874591180  0.0010334319458139  
  0.4997782054711450  0.9981608959151200  0.0001713131770202  
  0.4987716345086850  0.4988942005954300  0.9991953642945430  
  0.2516861639594620  0.2487586708102680  0.9973824659086570  
  0.2500750981290810  0.7501993867637820  0.9981650770345420  
  0.7507396164829390  0.2513359898692830  0.0032853739197662  
  0.7493202591153860  0.7500934205842210  0.0007668316378471  
  0.0990674432731069  0.1559352806679680  0.5354923240237210  
  0.0938684680285533  0.6553930042574900  0.5391874609853100  
  0.5904486538225771  0.1554615674537350  0.5355754439798520  
  0.5913076294743430  0.6462396824668840  0.5329463848483300  
  0.4118949144616910  0.8425384218118740  0.4619305538240890  
  0.9056105490027090  0.3490052663089000  0.4607468139831070  
  0.9029851129547590  0.8499467612103190  0.4639362441873660  
  0.3423428924440660  0.0957920787320958  0.4610436146754320  
  0.3569932417260020  0.5226459405745560  0.4634730025442270  
  0.8460703263601060  0.1001967599344270  0.4603225941866640  
  0.8448997041792050  0.5987527150155780  0.4621406050736570  
  0.1606809849090280  0.4053847833321530  0.5334320213610300  
  0.1577701636239230  0.9008711374206370  0.5365056903977320  
  0.6496477051937430  0.4026847540073180  0.5380815423439240  
  0.6585126585824670  0.9062912914097010  0.5378623666712340  
  0.4093084471211840  0.3431596159998660  0.0361399592248048  
  0.4089530985571490  0.8436006742491460  0.0364461071719830  
  0.9067282641784470  0.3482102694623490  0.0407804980276012  
  0.9061192456382440  0.8472661914938510  0.0386970996512446  
  0.0938314388381229  0.1539919792119160  0.9596704461284130  
  0.0908991039779465  0.6562689249012550  0.9618225467694970  
  0.5954737434624920  0.1509824358843590  0.9694163851786330  
  0.5924741484951210  0.6518579020988540  0.9610280068310429  
  0.1551367617030120  0.4006893519697460  0.9632260197409011  
  0.1573510464712910  0.9033638922521520  0.9601161200799030  
  0.6585768597983370  0.4061978667090500  0.9641202056473900  
  0.6583700064952250  0.9043378327858850  0.9612221073869520  
  0.3420759930264690  0.0939880783212885  0.0374075296444971  
  0.3413183154912570  0.5952472719494680  0.0328475051707713  
  0.8454401929784230  0.0991863358882696  0.0409867047674481  
  0.8429637740161480  0.5969168975947170  0.0397347288225589  
  0.4520041629226130  0.4918079185478920  0.7523516309842150  
  0.4636796290803600  0.9989564617492021  0.7498728166473900  
  0.9648563379750500  0.4987814465291150  0.7501378126855160  
  0.9642058926995180  0.0027868317183106  0.7489528395454950  
  0.0417327193161370  0.0020552716679418  0.2489074155977140  
  0.0381382334823499  0.5048346316801260  0.2500817046870910  
  0.5373748025312250  0.9998304229205390  0.2500077400328490  
  0.5220537044227380  0.4912960764066630  0.2537271485768640  
  0.2210105077110000  0.2535421997137770  0.2495439358103720  
  0.2183691350959760  0.7452497039416530  0.2507097830827480  
  0.7079342584730240  0.2554933555140690  0.2509889228974490  
  0.7090444904951380  0.7516215814647470  0.2498124405063610  
  0.2956725632116670  0.2499798671954780  0.7481697837843980  
  0.2936532143144820  0.7465695012636220  0.7502683587161130  
  0.7840324704653200  0.2515148129868270  0.7510976768984610  
  0.7836495021272400  0.7486339582263000  0.7497642992496980  
