Cs   Pb    I                            
   1.0000000000000000     
    16.8565235137999991    0.0000000000000000    0.0000000000000000
     0.0000000000000000   17.9457893372000008    0.0000000000000000
     0.0000000000000000    0.0000000000000000   12.4745693207000006
  Cs              Pb              I             
    16    16    47
Direct
     0.4810256704170327    0.2103277793874410    0.2513918546937853
     0.4864439484102191    0.7068195632807224    0.2465529476523964
     0.9968849905851642    0.2133426170189251    0.2517710499223203
     0.9855834011306837    0.7093386012091659    0.2532155431534528
     0.0049885424141996    0.2831143730510665    0.7486157778649266
     0.0139947663889062    0.7880774886479796    0.7508478952341162
     0.5278965144684910    0.2877763424791102    0.7629640049624785
     0.5177661315233120    0.7914681932897177    0.7495601460436954
     0.2365587261775959    0.0392784153972035    0.7464683679549733
     0.2365920317526919    0.5347491545569030    0.7542220575490355
     0.7421634237757854    0.0371970110738531    0.7512581350741161
     0.7288616737152676    0.5405334529256219    0.7457487918414564
     0.2482992487883590    0.4740511622067583    0.2266759076804276
     0.2684237725446105    0.9512659443468859    0.2508430864112376
     0.7646003051391493    0.4585321746252404    0.2523819275890899
     0.7646650788821183    0.9632128357317549    0.2506688269137806
     0.0059271259267747   -0.0032676199933397    0.4975646098769151
    -0.0048079125214740    0.4986724145384806    0.5038305081668539
     0.4977608492780236    0.9986787517005465    0.4997211987261388
     0.4986370852273964    0.4999436369084874    0.5035921302459117
     0.2512360823640975    0.2519428734540161    0.5037781189080508
     0.2525138899922598    0.7417459371566117    0.4992736781111070
     0.7490551382119005    0.2453074485519480    0.4990288677209401
     0.7482770032852323    0.7517505084636872    0.4989666745770900
     0.0048617423316601   -0.0008524893861153    0.9999572372444774
     0.9945323859753561    0.4982385326216803   -0.0020346322088903
     0.4985317844301708    0.9985641517732753    0.0008369908916312
     0.5059960556650175    0.4991258034764366    0.0015683390862574
     0.2531793795484179    0.2497722784485837    0.9965575391979138
     0.2505257212100293    0.7478490968264251    0.9959661804644312
     0.7510487561729502    0.2470452438776098    0.0046584911835497
     0.7514988879134804    0.7517450506505792    0.0002532187826288
     0.1027572192380372    0.1543241020004099    0.5351004489251073
     0.0920632809109062    0.6499585785796137    0.5409563120193428
     0.5877292005923617    0.1536807737194740    0.5366574477835973
     0.5889863472666206    0.6502958705265559    0.5313244847375683
     0.4085075502724570    0.8411445224991623    0.4615784349167169
     0.9041536029712860    0.3435819980925403    0.4630948479185345
     0.9055259692740149    0.8483960359222419    0.4640842995026283
     0.3413504498180979    0.0963935337241733    0.4574030830337357
     0.3336692944869016    0.5795570895935614    0.4653688176093974
     0.8494382017292811    0.0966447802504613    0.4624940741237524
     0.8398512327459007    0.5963822432349466    0.4633061362715272
     0.1520054391717305    0.3997070733730598    0.5438202519251372
     0.1599068743433367    0.8966153944767608    0.5371603918037439
     0.6517447125759934    0.3974358983844350    0.5365499283715647
     0.6576269875990051    0.9068951167233577    0.5381407523041526
     0.4085944411798026    0.3483343336115428    0.0377514141142736
     0.4073356568071692    0.8432272672710915    0.0366313310803421
     0.9066994555949238    0.3427281763937827    0.0408989614667269
     0.9094966110113957    0.8471687065101347    0.0394891386542322
     0.0962714684069459    0.1541822278571040    0.9601065238717063
     0.0935035191911659    0.6484583380246840    0.9611321614106225
     0.5934704949967403    0.1502525153194170    0.9715572954257223
     0.5948362342480684    0.6549296532649413    0.9623385949757248
     0.1502430011240184    0.3975021503483540    0.9565004871380189
     0.1606014598556047    0.9023176870098006    0.9584997721952151
     0.6632173749337211    0.4045781178822550    0.9664952091584365
     0.6579607564912493    0.9049695550741326    0.9627956475655295
     0.3415713828071181    0.0947106736132867    0.0423317588650458
     0.3491595279288521    0.5974496403510983    0.0267244244494632
     0.8483550235487232    0.0967067292555951    0.0390915740490418
     0.8413471691317959    0.5966856805911163    0.0397170126009208
     0.4651160472724066    0.4942660742823910    0.7524096652111526
     0.4616225664670468    1.0002701193000716    0.7503754321237430
     0.9517918983648017    0.4936940799427537    0.7510745757683699
     0.9698610775663969    0.0010406201074318    0.7486490732945197
     0.0458856806529478    0.0030006456518829    0.2487788417126896
     0.0258074381202984    0.4969550914247688    0.2513145024084462
     0.5374673042312202    0.0008988349194114    0.2504091634390750
     0.5342683144800103    0.4944710086002294    0.2536067806624624
     0.2247868151936625    0.2620100901977354    0.2504543600087736
     0.2158055266000686    0.7390150520574552    0.2480905071918863
     0.7074054508198933    0.2490714366292220    0.2517187394866111
     0.7107011110119612    0.7536868065117972    0.2494149556423009
     0.3020580135387614    0.2491526577319214    0.7482087956822986
     0.2925103927634249    0.7431982884320786    0.7479413333524664
     0.7792588380702475    0.2483942760777686    0.7518481318554217
     0.7864146647029632    0.7495519551415546    0.7494042052899720

             NaN             NaN             NaN
             NaN             NaN             NaN
             NaN             NaN             NaN
             NaN             NaN             NaN
             NaN             NaN             NaN
             NaN             NaN             NaN
             NaN             NaN             NaN
             NaN             NaN             NaN
             NaN             NaN             NaN
             NaN             NaN             NaN
             NaN             NaN             NaN
             NaN             NaN             NaN
             NaN             NaN             NaN
             NaN             NaN             NaN
             NaN             NaN             NaN
             NaN             NaN             NaN
             NaN             NaN             NaN
             NaN             NaN             NaN
             NaN             NaN             NaN
             NaN             NaN             NaN
             NaN             NaN             NaN
             NaN             NaN             NaN
             NaN             NaN             NaN
             NaN             NaN             NaN
             NaN             NaN             NaN
             NaN             NaN             NaN
             NaN             NaN             NaN
             NaN             NaN             NaN
             NaN             NaN             NaN
             NaN             NaN             NaN
             NaN             NaN             NaN
             NaN             NaN             NaN
             NaN             NaN             NaN
             NaN             NaN             NaN
             NaN             NaN             NaN
             NaN             NaN             NaN
             NaN             NaN             NaN
             NaN             NaN             NaN
             NaN             NaN             NaN
             NaN             NaN             NaN
             NaN             NaN             NaN
             NaN             NaN             NaN
             NaN             NaN             NaN
             NaN             NaN             NaN
             NaN             NaN             NaN
             NaN             NaN             NaN
             NaN             NaN             NaN
             NaN             NaN             NaN
             NaN             NaN             NaN
             NaN             NaN             NaN
             NaN             NaN             NaN
             NaN             NaN             NaN
             NaN             NaN             NaN
             NaN             NaN             NaN
             NaN             NaN             NaN
             NaN             NaN             NaN
             NaN             NaN             NaN
             NaN             NaN             NaN
             NaN             NaN             NaN
             NaN             NaN             NaN
             NaN             NaN             NaN
             NaN             NaN             NaN
             NaN             NaN             NaN
             NaN             NaN             NaN
             NaN             NaN             NaN
             NaN             NaN             NaN
             NaN             NaN             NaN
             NaN             NaN             NaN
             NaN             NaN             NaN
             NaN             NaN             NaN
             NaN             NaN             NaN
             NaN             NaN             NaN
             NaN             NaN             NaN
             NaN             NaN             NaN
             NaN             NaN             NaN
             NaN             NaN             NaN
             NaN             NaN             NaN
             NaN             NaN             NaN
             NaN             NaN             NaN
