Cs   Pb    I
   1.0000000000000000     
  16.8565235137999991   0.0000000000000000   0.0000000000000000
   0.0000000000000000  17.9457893372000008   0.0000000000000000
   0.0000000000000000   0.0000000000000000  12.4745693207000006
Cs   Pb    I
16  16  47  
Direct
  0.4831045430864550  0.2088548160154250  0.2513375272341070  
  0.4837154298252670  0.7042798117287670  0.2483851901117480  
  0.9933531183475069  0.2134993095584930  0.2500147096457890  
  0.9874003686608080  0.7151722754573770  0.2531731688760460  
  0.0099448480488107  0.2872669646340850  0.7476039997655730  
  0.0092425545941950  0.7925729295466299  0.7492388798010130  
  0.5249385029158300  0.2861016063150710  0.7618195995211819  
  0.5192980989044220  0.7887591335364870  0.7459914231559210  
  0.2389772316954860  0.0396562032067393  0.7486792491331610  
  0.2286404234976870  0.5415540722052730  0.7533471918924800  
  0.7367972164641540  0.0407558126276086  0.7507045794717090  
  0.7391091173633410  0.5376817356210920  0.7473877337340650  
  0.2593709686930270  0.4653812704205930  0.2415838831764390  
  0.2669160356254280  0.9572803193166660  0.2499786257662960  
  0.7546535011774860  0.4662917267574400  0.2539998554024690  
  0.7641123036936220  0.9615336420474140  0.2500918778207290  
  0.0010773169063114  0.0004484686473987  0.4979261981246170  
  0.0008709457433085  0.5013533600459040  0.4992485281000540  
  0.4999266275120390  0.9989762239434510  0.4996386294345360  
  0.4926315790030600  0.4977359869162470  0.5072866968335460  
  0.2520403197686680  0.2513368795512040  0.5021676717728520  
  0.2513523121344580  0.7501907291778310  0.5015518991808110  
  0.7496292818579779  0.2505373423072830  0.4991272178062900  
  0.7470767027718710  0.7501556709299140  0.4992679065270170  
  0.0007690384155055  0.0007924977492948  0.9995525134569970  
  0.9996549006767380  0.5012868633509410  0.0002994865349777  
  0.4996016905653700  0.9976135052981410  0.0005897172124207  
  0.4989508298104250  0.4988517149145150  0.0000267511534489  
  0.2519865601513590  0.2493131905723230  0.9966042054903920  
  0.2497637001548940  0.7505848773165340  0.9979785158414530  
  0.7512078521795260  0.2513945902431370  0.0039467913037186  
  0.7492541075384620  0.7499002021010670  0.0009217893654139  
  0.1006019131277260  0.1558770302015660  0.5346449150284660  
  0.0923817916342600  0.6565239017089870  0.5392312657823690  
  0.5902242821870940  0.1557851165444790  0.5348814525758170  
  0.5917556865692150  0.6443191199602580  0.5330581578179970  
  0.4115528055540310  0.8425977669742510  0.4616024299889080  
  0.9063347280032520  0.3485483819706800  0.4608314999797260  
  0.9022384029457130  0.8505201092523860  0.4645215542248380  
  0.3429842837328750  0.0964488106785168  0.4609427466105200  
  0.3470745222712070  0.5577734010894700  0.4639761432530700  
  0.8457446756321260  0.0999331415213121  0.4594627454239980  
  0.8448956210150480  0.5985356284186950  0.4626195106883910  
  0.1610910896908350  0.4055814005985850  0.5329670324332340  
  0.1577567595487040  0.9024853893047650  0.5375399642772790  
  0.6501194606324890  0.4019137192087780  0.5388488792127080  
  0.6583622766989590  0.9060634230916380  0.5376410380054820  
  0.4098602539454180  0.3428387663998360  0.0359003228697645  
  0.4091839458685770  0.8429570392989730  0.0377526276063804  
  0.9073981414141410  0.3478871983548190  0.0403651494331214  
  0.9060759715658900  0.8474957479926180  0.0382331075814974  
  0.0942599554057466  0.1541983052542970  0.9594221181540949  
  0.0907560659735367  0.6563556572815090  0.9610646099233970  
  0.5961525395549930  0.1503085464612330  0.9712037932143570  
  0.5924560973941480  0.6517708945186270  0.9611615635972510  
  0.1553393942436120  0.4009713323636960  0.9611410262890840  
  0.1576646595655480  0.9040297483025840  0.9597131952958829  
  0.6589577715580081  0.4063696956508590  0.9653198157768730  
  0.6581713605942670  0.9039198061430650  0.9612509466643430  
  0.3423628360317610  0.0943923263855453  0.0369580491733927  
  0.3415268297895080  0.5958334839393660  0.0323380920049274  
  0.8455137631741110  0.0991433740659247  0.0414125711209365  
  0.8427412694193780  0.5965248531136570  0.0393839185870704  
  0.4522061151071310  0.4899133532574710  0.7536263891810580  
  0.4647456702964310  0.9987418478990410  0.7499711685768700  
  0.9645881277700570  0.4981682710349420  0.7496976376226170  
  0.9636448820394250  0.0041055028619752  0.7487757482545940  
  0.0415436209793683  0.0018229978015327  0.2487317247172530  
  0.0372038771788183  0.5049158380161530  0.2496644184245080  
  0.5376004514374700  0.0003226647046475  0.2500933660394150  
  0.5212511745072850  0.4885699632879930  0.2548861936922360  
  0.2224056844532000  0.2541297254565360  0.2492072395724420  
  0.2161113515151740  0.7471071335299870  0.2500106626992960  
  0.7080154395676320  0.2559679328168870  0.2513627666769410  
  0.7084805983941680  0.7509292953577000  0.2499134280076380  
  0.2975622646540050  0.2502996344345760  0.7475832255412770  
  0.2927971197773760  0.7482231159163460  0.7497693784593340  
  0.7837473553583860  0.2511477153841920  0.7514691238781520  
  0.7833266371526900  0.7484542692715620  0.7498808256996410  
