Cs   Pb    I
   1.0000000000000000     
  16.8565235137999991   0.0000000000000000   0.0000000000000000
   0.0000000000000000  17.9457893372000008   0.0000000000000000
   0.0000000000000000   0.0000000000000000  12.4745693207000006
Cs   Pb    I
16  16  47  
Direct
  0.4828809747243100  0.2081891966769480  0.2509144621560680  
  0.4859256015501780  0.7081977868191840  0.2450575754078270  
  0.9914504132316680  0.2135755367056690  0.2504531887638630  
  0.9903194294405400  0.7150590443049230  0.2528328112506980  
  0.0104955820325401  0.2885442084227210  0.7491365588437160  
  0.0099944797294711  0.7902092920310860  0.7482607688673401  
  0.5205049282772189  0.2877600755433750  0.7577619140141180  
  0.5197572682696080  0.7902218406909900  0.7475565434372770  
  0.2363206931303240  0.0388455208044931  0.7481773627554420  
  0.2269030349984650  0.5394267784701871  0.7566658392616500  
  0.7384325899761000  0.0411778500850772  0.7504727009811420  
  0.7392201042422220  0.5381695130807320  0.7468302658227161  
  0.2620446574620200  0.4634377812803900  0.2452272624509600  
  0.2667924120836180  0.9554874538777800  0.2499865201775360  
  0.7550062727849960  0.4656442581716290  0.2526466619349750  
  0.7643740784624100  0.9625925850316150  0.2508480372138210  
  0.0014880586042025  0.0003311647649369  0.4981240664164090  
  0.0005719444955403  0.5011195966972720  0.4993824170666980  
  0.4997634963413590  0.9995186876289710  0.4999933012896850  
  0.4941302953353810  0.4992051296108360  0.5052758705556930  
  0.2514163288457780  0.2504410063674670  0.5018798975152380  
  0.2536706680896400  0.7493142311185470  0.5031284411205380  
  0.7488878305719880  0.2505117448715170  0.4987568832041940  
  0.7477380155145780  0.7508580639532740  0.4990022450180120  
  0.0005318526103437  0.0002671934995320  0.0000691519713314  
  0.9995337861178299  0.5010793115672950  0.0017673773566500  
  0.4999547203769200  0.9987082865320930  0.9997529091416200  
  0.4985924392069450  0.4989366862763450  0.9983639774356380  
  0.2513857677675660  0.2482041510482130  0.9981607263269230  
  0.2503864961032680  0.7498138962110230  0.9983516382276320  
  0.7502713807863510  0.2512773894954280  0.0026239565358139  
  0.7493864106923100  0.7502866390673760  0.0006118739102803  
  0.0975329734184882  0.1559935311343710  0.5363397330189770  
  0.0953551444228466  0.6542621068059939  0.5391436561882510  
  0.5906730254580590  0.1551380183629900  0.5362694353838861  
  0.5908595723794720  0.6481602449735110  0.5328346118786630  
  0.4122370233693500  0.8424790766494969  0.4622586776592710  
  0.9048863700021670  0.3494621506471200  0.4606621279864880  
  0.9037318229638061  0.8493734131682520  0.4633509341498940  
  0.3417015011552560  0.0951353467856748  0.4611444827403450  
  0.3669119611807970  0.4875184800596410  0.4629698618353830  
  0.8463959770880860  0.1004603783475420  0.4611824429493300  
  0.8449037873433620  0.5989698016124620  0.4616616994589220  
  0.1602708801272210  0.4051881660657200  0.5338970102888250  
  0.1577835676991410  0.8992568855365090  0.5354714165181850  
  0.6491759497549980  0.4034557888058570  0.5373142054751410  
  0.6586630404659740  0.9065191597277650  0.5380836953369870  
  0.4087566402969500  0.3434804655998960  0.0363795955798452  
  0.4087222512457200  0.8442443091993180  0.0351395867375857  
  0.9060583869427530  0.3485333405698800  0.0411958466220810  
  0.9061625197105980  0.8470366349950850  0.0391610917209917  
  0.0934029222704993  0.1537856531695350  0.9599187741027320  
  0.0910421419823564  0.6561821925210010  0.9625804836155960  
  0.5947949473699909  0.1516563253074850  0.9676289771429080  
  0.5924921995960940  0.6519449096790810  0.9608944500648350  
  0.1549341291624130  0.4004073715757950  0.9653110131927179  
  0.1570374333770350  0.9026980362017200  0.9605190448639220  
  0.6581959480386670  0.4060260377672410  0.9629205955179070  
  0.6585686523961840  0.9047558594287040  0.9611932681095610  
  0.3417891500211780  0.0935838302570318  0.0378570101156015  
  0.3411098011930060  0.5946610599595700  0.0333569183366151  
  0.8453666227827340  0.0992292977106146  0.0405608384139597  
  0.8431862786129189  0.5973089420757770  0.0400855390580475  
  0.4518022107380940  0.4937024838383120  0.7510768727873720  
  0.4626135878642900  0.9991710755993640  0.7497744647179090  
  0.9651245481800430  0.4993946220232890  0.7505779877484140  
  0.9647669033596100  0.0014681605746460  0.7491299308363960  
  0.0419218176529057  0.0022875455343509  0.2490831064781740  
  0.0390725897858815  0.5047534253440989  0.2504989909496730  
  0.5371491536249809  0.9993381811364300  0.2499221140262830  
  0.5228562343381919  0.4940221895253320  0.2525681034614920  
  0.2196153309688000  0.2529546739710180  0.2498806320483030  
  0.2206269186767780  0.7433922743533190  0.2514089034661990  
  0.7078530773784170  0.2550187782112520  0.2506150791179560  
  0.7096083825961090  0.7523138675717930  0.2497114530050840  
  0.2937828617693300  0.2496600999563800  0.7487563420275190  
  0.2945093088515880  0.7449158866108970  0.7507673389728921  
  0.7843175855722540  0.2518819105894610  0.7507262299187690  
  0.7839723671017890  0.7488136471810380  0.7496477727997540  
