Cs   Pb    I                            
   1.0000000000000000     
    16.8565235137999991    0.0000000000000000    0.0000000000000000
     0.0000000000000000   17.9457893372000008    0.0000000000000000
     0.0000000000000000    0.0000000000000000   12.4745693207000006
  Cs              Pb              I             
    16    16    47
Direct
     0.4753553380286611    0.2195186908499319    0.2592669877970387
     0.4953245264989823    0.7201875435800507    0.2385130745597049
     0.9937394222224675    0.2142417556733820    0.2544817141639721
     0.9910710147834563    0.7084176817144832    0.2520469905269802
    -0.0030430302787821    0.2813739782141418    0.7523453507388348
     0.0160211470517590    0.7849495461011461    0.7486580199812102
     0.5210295318255657    0.2955185909465134    0.7562316504499048
     0.5185143061285702    0.7984130438980513    0.7563630390747617
     0.2335379048055307    0.0402072619596310    0.7446145405897620
     0.2428522307586264    0.5269939768110760    0.7510480138636988
     0.7418171686091199    0.0401371838272039    0.7520359845620970
     0.7240757887814457    0.5434136621846564    0.7418711016120348
     0.2479752461385872    0.4763461067653896    0.2282986928948648
     0.2686666731511140    0.9520831338911664    0.2511595336771997
     0.7653039160373609    0.4589926125192698    0.2494360395172804
     0.7653351050905393    0.9670963761582383    0.2541327431331361
     0.0060249072875780   -0.0004436080302323    0.4985692345663617
    -0.0106460068854649    0.4996345412933050    0.5049043907372597
     0.4948891094062469    0.0030515316799965    0.5006966257691017
     0.5046427302827803    0.5119682613446717    0.4998317824977088
     0.2473497679056089    0.2567861376727970    0.5024150251360335
     0.2567572306409008    0.7448887753178448    0.5041579704565662
     0.7445675220206293    0.2462072623431954    0.4968005887868890
     0.7507305723636435    0.7577133862492629    0.4999993409969414
     0.0053336398541622    1.0004649201816016    0.0007891424228249
     0.9939379148638180    0.4983023565189822   -0.0024364629518758
     0.4990166693883565    1.0039228887734621    1.0019790721185686
     0.5077233606252273    0.5024160073757497    1.0013773408018229
     0.2526109437300270    0.2512833630353765    0.9970700475328735
     0.2512330896120544    0.7483804847225446    0.9968560947988067
     0.7488497081684800    0.2482032939040950    0.0034523604024303
     0.7543043035734956    0.7544428875087565   -0.0002680260449869
     0.0958738172357847    0.1555371470469752    0.5392014996023204
     0.1017360201939472    0.6425409549435529    0.5413494635162776
     0.5837748816833003    0.1567740805019701    0.5378721591771550
     0.5876040269595885    0.6694122599988637    0.5331251916680402
     0.4094680051418714    0.8435554890491879    0.4623974003072592
     0.8970908794462644    0.3469098365420801    0.4611375747505719
     0.9111292198364134    0.8476529300793753    0.4597446942746585
     0.3387447193975418    0.1000546702152661    0.4566588039036911
     0.3705717212591552    0.3929685689291236    0.4644519349632207
     0.8504692564024369    0.1003076458107527    0.4686604420767811
     0.8351638625071292    0.5995709112973501    0.4627269791150798
     0.1354469861179259    0.3939194106399755    0.5585450380048114
     0.1596967826882951    0.8915112357276385    0.5330754629269351
     0.6432262565340839    0.4011042526502862    0.5265750741750890
     0.6567088829481479    0.9112008438743314    0.5373838764144098
     0.4070661088629212    0.3533929154389435    0.0365245430430930
     0.4054778700100640    0.8488864175679566    0.0337371339405468
     0.9057543473482140    0.3434646791201639    0.0411431393254241
     0.9131768639652150    0.8472248043299325    0.0405078270799667
     0.0959736432142739    0.1553986167524724    0.9610154868215729
     0.0971244723888001    0.6469207355235247    0.9604830217341568
     0.5892453664546601    0.1565352422370859    0.9666829271295518
     0.5970721866980256    0.6583305730303962    0.9618303600823502
     0.1496660934194421    0.3988622406396111    0.9556836916822646
     0.1602448129875458    0.9022762165944133    0.9581000228271026
     0.6635055465997576    0.4064125398238893    0.9647409665289399
     0.6588645309808501    0.9076456858187767    0.9659805186551118
     0.3405142413470340    0.0963271257651339    0.0436598782110720
     0.3510632250079732    0.5991483687606581    0.0280778890827316
     0.8476121753344803    0.0976758832157632    0.0381172482409041
     0.8417260378696910    0.5982295306995054    0.0395034233699593
     0.4722554910854296    0.5075835884026816    0.7497366040650322
     0.4590418807551797    1.0041433423508932    0.7516000560204343
     0.9458335384787259    0.4945542605022356    0.7520603445646614
     0.9693706066365444    0.9976879519858002    0.7498434141018876
     0.0468855349276419    0.0047107911046024    0.2496916675136849
     0.0249407992748151    0.4955731796216206    0.2520361521682386
     0.5365776759209587    1.0059839331406881    0.2515722612949318
     0.5409949245683527    0.5106133015886257    0.2502869830490251
     0.2173937598805330    0.2633471590001675    0.2489343769462728
     0.2242132224145160    0.7333475081569661    0.2513815252788979
     0.7039754290937527    0.2495547182695715    0.2495953589825700
     0.7172948382342812    0.7571669084716854    0.2494635250056264
     0.2979872083213483    0.2486761696021279    0.7483917552327030
     0.2975612721689506    0.7376365437124902    0.7502512297463199
     0.7728758226349590    0.2520910879919700    0.7499070087411406
     0.7893084267861221    0.7519298498479224    0.7493616123999266

             NaN             NaN             NaN
             NaN             NaN             NaN
             NaN             NaN             NaN
             NaN             NaN             NaN
             NaN             NaN             NaN
             NaN             NaN             NaN
             NaN             NaN             NaN
             NaN             NaN             NaN
             NaN             NaN             NaN
             NaN             NaN             NaN
             NaN             NaN             NaN
             NaN             NaN             NaN
             NaN             NaN             NaN
             NaN             NaN             NaN
             NaN             NaN             NaN
             NaN             NaN             NaN
             NaN             NaN             NaN
             NaN             NaN             NaN
             NaN             NaN             NaN
             NaN             NaN             NaN
             NaN             NaN             NaN
             NaN             NaN             NaN
             NaN             NaN             NaN
             NaN             NaN             NaN
             NaN             NaN             NaN
             NaN             NaN             NaN
             NaN             NaN             NaN
             NaN             NaN             NaN
             NaN             NaN             NaN
             NaN             NaN             NaN
             NaN             NaN             NaN
             NaN             NaN             NaN
             NaN             NaN             NaN
             NaN             NaN             NaN
             NaN             NaN             NaN
             NaN             NaN             NaN
             NaN             NaN             NaN
             NaN             NaN             NaN
             NaN             NaN             NaN
             NaN             NaN             NaN
             NaN             NaN             NaN
             NaN             NaN             NaN
             NaN             NaN             NaN
             NaN             NaN             NaN
             NaN             NaN             NaN
             NaN             NaN             NaN
             NaN             NaN             NaN
             NaN             NaN             NaN
             NaN             NaN             NaN
             NaN             NaN             NaN
             NaN             NaN             NaN
             NaN             NaN             NaN
             NaN             NaN             NaN
             NaN             NaN             NaN
             NaN             NaN             NaN
             NaN             NaN             NaN
             NaN             NaN             NaN
             NaN             NaN             NaN
             NaN             NaN             NaN
             NaN             NaN             NaN
             NaN             NaN             NaN
             NaN             NaN             NaN
             NaN             NaN             NaN
             NaN             NaN             NaN
             NaN             NaN             NaN
             NaN             NaN             NaN
             NaN             NaN             NaN
             NaN             NaN             NaN
             NaN             NaN             NaN
             NaN             NaN             NaN
             NaN             NaN             NaN
             NaN             NaN             NaN
             NaN             NaN             NaN
             NaN             NaN             NaN
             NaN             NaN             NaN
             NaN             NaN             NaN
             NaN             NaN             NaN
             NaN             NaN             NaN
             NaN             NaN             NaN
