Cs   Pb    I
   1.0000000000000000     
  16.8565235137999991   0.0000000000000000   0.0000000000000000
   0.0000000000000000  17.9457893372000008   0.0000000000000000
   0.0000000000000000   0.0000000000000000  12.4745693207000006
Cs   Pb    I
16  16  47  
Direct
  0.4826574063621650  0.2075235773384700  0.2504913970780290  
  0.4881357732750900  0.7121157619096010  0.2417299607039070  
  0.9895477081158290  0.2136517638528450  0.2508916678819380  
  0.9932384902202710  0.7149458131524680  0.2524924536253510  
  0.0110463160162695  0.2898214522113560  0.7506691179218590  
  0.0107464048647472  0.7878456545155430  0.7472826579336670  
  0.5160713536386080  0.2894185447716780  0.7537042285070540  
  0.5202164376347940  0.7916845478454920  0.7491216637186330  
  0.2336641545651620  0.0380348384022469  0.7476754763777220  
  0.2251656464992420  0.5372994847351010  0.7599844866308200  
  0.7400679634880450  0.0415998875425458  0.7502408224905750  
  0.7393310911211020  0.5386572905403710  0.7462727979113670  
  0.2647183462310140  0.4614942921401880  0.2488706417254820  
  0.2666687885418070  0.9536945884388930  0.2499944145887770  
  0.7553590443925060  0.4649967895858180  0.2512934684674800  
  0.7646358532311980  0.9636515280158160  0.2516041966069120  
  0.0018988003020937  0.0002138608824751  0.4983219347082010  
  0.0002729432477722  0.5008858333486400  0.4995163060333430  
  0.4996003651706790  0.0000611513144904  0.5003479731448340  
  0.4956290116677020  0.5006742723054241  0.5032650442778390  
  0.2507923379228880  0.2495451331837300  0.5015921232576230  
  0.2559890240448230  0.7484377330592620  0.5047049830602650  
  0.7481463792859980  0.2504861474357510  0.4983865486020990  
  0.7483993282572849  0.7515604569766340  0.4987365835090070  
  0.0002946668051820  0.9997418892497690  0.0005857904856725  
  0.9994126715589220  0.5008717597836490  0.0032352681783223  
  0.5003077501884690  0.9998030677660380  0.9989161010708190  
  0.4982340486034640  0.4990216576381740  0.9967012037178260  
  0.2507849753837730  0.2470951115241040  0.9997172471634530  
  0.2510092920516410  0.7490429151055050  0.9987247606138110  
  0.7493349093931770  0.2511601887477180  0.0013011217679093  
  0.7495187138461570  0.7506730760336850  0.0003019584551467  
  0.0944640337092508  0.1561100320671760  0.5380345510094880  
  0.0983284972114333  0.6520003119030020  0.5390560465941330  
  0.5911217687290250  0.1544909201815020  0.5376574181919550  
  0.5899634581897290  0.6520013699867629  0.5326110659393281  
  0.4129212411846690  0.8423603863247420  0.4629149253296350  
  0.9034380120010820  0.3503759193235610  0.4604927559932510  
  0.9052252429818990  0.8482267170841170  0.4621803140749490  
  0.3404187185776380  0.0938218828928328  0.4613462188701690  
  0.3867494000903870  0.4172635590298130  0.4619635804176950  
  0.8470472785440460  0.1009876151737710  0.4629021404746610  
  0.8449119536716760  0.5994039748062290  0.4607038882294530  
  0.1594506705636080  0.4047949315328550  0.5348269881444170  
  0.1578103758495790  0.8960283817682539  0.5334028687590900  
  0.6482324388775070  0.4049978584029360  0.5357795317375750  
  0.6589638042329899  0.9069748963638919  0.5385263526684910  
  0.4076530266484820  0.3441221647999550  0.0368588682899258  
  0.4082605566228640  0.8455315790996640  0.0325265458687909  
  0.9047186324713650  0.3491794827849400  0.0420265438110405  
  0.9062490678553060  0.8465775219975530  0.0400890758604859  
  0.0925458891352520  0.1533730010847730  0.9604154300513700  
  0.0913282179911761  0.6560087277604940  0.9640963573077950  
  0.5934373551849890  0.1530041041537370  0.9640541610714590  
  0.5925283017980409  0.6521189248395340  0.9606273365324181  
  0.1545288640812150  0.3998434107878950  0.9694810000963510  
  0.1564102071885220  0.9013663241008560  0.9613248944319610  
  0.6574341245193270  0.4056823798836220  0.9605213752589420  
  0.6589659441981010  0.9055919127143430  0.9611355895547790  
  0.3412154640105950  0.0927753341285182  0.0387559710578103  
  0.3406927725965050  0.5934886359797740  0.0343757446683028  
  0.8452194823913570  0.0993152213553046  0.0397091057069829  
  0.8436312878064600  0.5980930310378980  0.0407871595290246  
  0.4513983063690570  0.4974916144191540  0.7485273563936869  
  0.4604815054321490  0.9996003032996870  0.7495777608589480  
  0.9656609685900290  0.5006209730116350  0.7514583378742120  
  0.9658889246797950  0.9988308182873170  0.7494841134181980  
  0.0423000143264431  0.0027520932671692  0.2494344882390960  
  0.0409413023929446  0.5045910126720440  0.2513335634748370  
  0.5366978558124910  0.9983536975682130  0.2497508620131510  
  0.5244612941691000  0.4994744157626700  0.2502500132307470  
  0.2168249774844000  0.2517796224855000  0.2505540245241630  
  0.2251424858383830  0.7396774151766510  0.2528071442331030  
  0.7076907151892020  0.2540696236056160  0.2498673915589720  
  0.7107361667980500  0.7536984397858860  0.2495094780025300  
  0.2900034588846550  0.2490205654781830  0.7499294585137620  
  0.2962214979257990  0.7416086573054490  0.7517652994864510  
  0.7848878157861210  0.2526161057947290  0.7499833359593850  
  0.7846180970508880  0.7491730250905140  0.7494147198998680  
