Cs   Pb    I
   1.0000000000000000     
  16.8565235137999991   0.0000000000000000   0.0000000000000000
   0.0000000000000000  17.9457893372000008   0.0000000000000000
   0.0000000000000000   0.0000000000000000  12.4745693207000006
Cs   Pb    I
16  16  47  
Direct
  0.4832163272675275  0.2091876256846592  0.2515490597731261  
  0.4826103439628081  0.7023208241835625  0.2500489974637075  
  0.9943044709054242  0.2134611959849082  0.2497954700867517  
  0.9859408382709411  0.7152288910336049  0.2533433476887176  
  0.0096694810569458  0.2866283427397625  0.7468377202265029  
  0.0088665920265581  0.7937547483044051  0.7497279352678501  
  0.5271552902351361  0.2852723717009168  0.7638484422747108  
  0.5190685142218244  0.7880277799592385  0.7452088630152390  
  0.2403055009780694  0.0400615444078593  0.7489301923220235  
  0.2295091177473004  0.5426177190728141  0.7516878682078947  
  0.7359795297081815  0.0405447938988804  0.7508205187169943  
  0.7390536239238946  0.5374378468912755  0.7476664676897453  
  0.2580341243085339  0.4663530149906894  0.2397621935391810  
  0.2669778473963325  0.9581767520361092  0.2499746785606778  
  0.7544771153737351  0.4666154610503465  0.2546764521362129  
  0.7639814163092300  0.9610041705553152  0.2497137981241837  
  0.0008719460573648  0.0005071205886339  0.4978272639787186  
  0.0010204463671919  0.5014702417202215  0.4991815836167328  
  0.5000081930973815  0.9987049921006919  0.4994612935069588  
  0.4918822208368995  0.4970014155689526  0.5082921099724689  
  0.2523523152301120  0.2517848161430722  0.5023115589016585  
  0.2501931341568706  0.7506289782074722  0.5007636282109443  
  0.7500000075009733  0.2505501410251648  0.4993123851073383  
  0.7467460464005190  0.7498044744182333  0.4994007372815217  
  0.0008876313180874  0.0010551498741774  0.9992941941998302  
  0.9997154579561920  0.5013906392427664  0.9995655411241423  
  0.4994251756596017  0.9970661146811672  0.0010081212478256  
  0.4991300251121603  0.4988092292335976  0.0008581380123535  
  0.2522869563432544  0.2498677103343804  0.9958259450721257  
  0.2494523021807132  0.7509703678692878  0.9977919546483592  
  0.7516760878761153  0.2514531906169896  0.0046082086876737  
  0.7491879559615414  0.7497069836179108  0.0010767470929794  
  0.1021363829823442  0.1558187797351618  0.5337975060332057  
  0.0908951152399707  0.6576547991604852  0.5392750705794277  
  0.5899999105516058  0.1561086656352264  0.5341874611717827  
  0.5922037436640815  0.6423985574536317  0.5331699307876618  
  0.4112106966463728  0.8426571121366284  0.4612743061537286  
  0.9070589070037968  0.3480914976324596  0.4609161859763471  
  0.9014916929366686  0.8510934572944521  0.4651068642623091  
  0.3436256750216860  0.0971055426249359  0.4608418785456078  
  0.3371558028164100  0.5929008616043808  0.4644792839619163  
  0.8454190249041467  0.0996695231081961  0.4586028966613302  
  0.8448915378508874  0.5983185418218109  0.4630984163031195  
  0.1615011944726421  0.4057780178650195  0.5325020435054423  
  0.1577433554734906  0.9040996411888893  0.5385742381568279  
  0.6505912160712388  0.4011426844102438  0.5396162160814929  
  0.6582118948154485  0.9058355547735744  0.5374197093397304  
  0.4104120607696543  0.3425179167998113  0.0356606865147290  
  0.4094147931800102  0.8423134043488008  0.0390591480407786  
  0.9080680186498358  0.3475641272472885  0.0399498008386384  
  0.9060326974935394  0.8477253044913836  0.0377691155117453  
  0.0946884719733700  0.1544046312966772  0.9591737901797746  
  0.0906130279691230  0.6564423896617572  0.9603066730772963  
  0.5968313356474941  0.1496346570381035  0.9729912012500840  
  0.5924380462931704  0.6516838869383998  0.9612951203634567  
  0.1555420267842112  0.4012533127576438  0.9590560328372627  
  0.1579782726598053  0.9046956043530159  0.9593102705118658  
  0.6593386833176774  0.4065415245926658  0.9665194259063556  
  0.6579727146933098  0.9035017795002467  0.9612797859417362  
  0.3426496790370554  0.0947965744498043  0.0365085687022891  
  0.3417353440877618  0.5964196959292631  0.0318286788390785  
  0.8455873333697955  0.0991004122435763  0.0418384374744246  
  0.8425187648226089  0.5961328086326003  0.0390331083515794  
  0.4524080672916507  0.4880187879670529  0.7549011473779030  
  0.4658117115125024  0.9985272340488792  0.7500695205063515  
  0.9643199175650663  0.4975550955407665  0.7492574625597234  
  0.9630838713793322  0.0054241740056408  0.7485986569636914  
  0.0413545226425962  0.0015907239351190  0.2485560338367966  
  0.0362695208752917  0.5049970443521764  0.2492471321619247  
  0.5378261003437119  0.0008149064887551  0.2501789920459831  
  0.5204486445918326  0.4858438501693218  0.2560452388076125  
  0.2238008611954039  0.2547172511992906  0.2488705433345121  
  0.2138535679343696  0.7489645631183206  0.2493115423158438  
  0.7080966206622377  0.2564425101197039  0.2517366104564289  
  0.7079167062931961  0.7502370092506540  0.2500144155089141  
  0.2994519660963414  0.2506194016736719  0.7469966672981558  
  0.2919410252402707  0.7498767305690698  0.7492703982025585  
  0.7834622402514475  0.2507806177815559  0.7518405708578428  
  0.7830037721781382  0.7482745803168188  0.7499973521495834  
Cs              Pb              I             
   1.0000000000000000     
  16.8565235137999991   0.0000000000000000   0.0000000000000000
   0.0000000000000000  17.9457893372000008   0.0000000000000000
   0.0000000000000000   0.0000000000000000  12.4745693207000006
Cs              Pb              I             
16  16  47  
Direct
  0.4810256704170327  0.2103277793874410  0.2513918546937853  
  0.4864439484102191  0.7068195632807224  0.2465529476523964  
  0.9968849905851642  0.2133426170189251  0.2517710499223203  
  0.9855834011306837  0.7093386012091659  0.2532155431534528  
  0.0049885424141996  0.2831143730510665  0.7486157778649266  
  0.0139947663889062  0.7880774886479796  0.7508478952341162  
  0.5278965144684910  0.2877763424791102  0.7629640049624785  
  0.5177661315233120  0.7914681932897177  0.7495601460436954  
  0.2365587261775959  0.0392784153972035  0.7464683679549733  
  0.2365920317526919  0.5347491545569030  0.7542220575490355  
  0.7421634237757854  0.0371970110738531  0.7512581350741161  
  0.7288616737152676  0.5405334529256219  0.7457487918414564  
  0.2482992487883590  0.4740511622067583  0.2266759076804276  
  0.2684237725446105  0.9512659443468859  0.2508430864112376  
  0.7646003051391493  0.4585321746252404  0.2523819275890899  
  0.7646650788821183  0.9632128357317549  0.2506688269137806  
  0.0059271259267747  0.9967323800066600  0.4975646098769151  
  0.9951920874785261  0.4986724145384806  0.5038305081668539  
  0.4977608492780236  0.9986787517005465  0.4997211987261388  
  0.4986370852273964  0.4999436369084874  0.5035921302459117  
  0.2512360823640975  0.2519428734540161  0.5037781189080508  
  0.2525138899922598  0.7417459371566117  0.4992736781111070  
  0.7490551382119005  0.2453074485519480  0.4990288677209401  
  0.7482770032852323  0.7517505084636872  0.4989666745770900  
  0.0048617423316601  0.9991475106138850  0.9999572372444774  
  0.9945323859753561  0.4982385326216803  0.9979653677911100  
  0.4985317844301708  0.9985641517732753  0.0008369908916312  
  0.5059960556650175  0.4991258034764366  0.0015683390862574  
  0.2531793795484179  0.2497722784485837  0.9965575391979138  
  0.2505257212100293  0.7478490968264251  0.9959661804644312  
  0.7510487561729502  0.2470452438776098  0.0046584911835497  
  0.7514988879134804  0.7517450506505792  0.0002532187826288  
  0.1027572192380372  0.1543241020004099  0.5351004489251073  
  0.0920632809109062  0.6499585785796137  0.5409563120193428  
  0.5877292005923617  0.1536807737194740  0.5366574477835973  
  0.5889863472666206  0.6502958705265559  0.5313244847375683  
  0.4085075502724570  0.8411445224991623  0.4615784349167169  
  0.9041536029712860  0.3435819980925403  0.4630948479185345  
  0.9055259692740149  0.8483960359222419  0.4640842995026283  
  0.3413504498180979  0.0963935337241733  0.4574030830337357  
  0.3336692944869016  0.5795570895935614  0.4653688176093974  
  0.8494382017292811  0.0966447802504613  0.4624940741237524  
  0.8398512327459007  0.5963822432349466  0.4633061362715272  
  0.1520054391717305  0.3997070733730598  0.5438202519251372  
  0.1599068743433367  0.8966153944767608  0.5371603918037439  
  0.6517447125759934  0.3974358983844350  0.5365499283715647  
  0.6576269875990051  0.9068951167233577  0.5381407523041526  
  0.4085944411798026  0.3483343336115428  0.0377514141142736  
  0.4073356568071692  0.8432272672710915  0.0366313310803421  
  0.9066994555949238  0.3427281763937827  0.0408989614667269  
  0.9094966110113957  0.8471687065101347  0.0394891386542322  
  0.0962714684069459  0.1541822278571040  0.9601065238717063  
  0.0935035191911659  0.6484583380246840  0.9611321614106225  
  0.5934704949967403  0.1502525153194170  0.9715572954257223  
  0.5948362342480684  0.6549296532649413  0.9623385949757248  
  0.1502430011240184  0.3975021503483540  0.9565004871380189  
  0.1606014598556047  0.9023176870098006  0.9584997721952151  
  0.6632173749337211  0.4045781178822550  0.9664952091584365  
  0.6579607564912493  0.9049695550741326  0.9627956475655295  
  0.3415713828071181  0.0947106736132867  0.0423317588650458  
  0.3491595279288521  0.5974496403510983  0.0267244244494632  
  0.8483550235487232  0.0967067292555951  0.0390915740490418  
  0.8413471691317959  0.5966856805911163  0.0397170126009208  
  0.4651160472724066  0.4942660742823910  0.7524096652111526  
  0.4616225664670468  0.0002701193000716  0.7503754321237430  
  0.9517918983648017  0.4936940799427537  0.7510745757683699  
  0.9698610775663969  0.0010406201074318  0.7486490732945197  
  0.0458856806529478  0.0030006456518829  0.2487788417126896  
  0.0258074381202984  0.4969550914247688  0.2513145024084462  
  0.5374673042312202  0.0008988349194114  0.2504091634390750  
  0.5342683144800103  0.4944710086002294  0.2536067806624624  
  0.2247868151936625  0.2620100901977354  0.2504543600087736  
  0.2158055266000686  0.7390150520574552  0.2480905071918863  
  0.7074054508198933  0.2490714366292220  0.2517187394866111  
  0.7107011110119612  0.7536868065117972  0.2494149556423009  
  0.3020580135387614  0.2491526577319214  0.7482087956822986  
  0.2925103927634249  0.7431982884320786  0.7479413333524664  
  0.7792588380702475  0.2483942760777686  0.7518481318554217  
  0.7864146647029632  0.7495519551415546  0.7494042052899720  
Cs              Pb              I             
   1.0000000000000000     
  16.8565235137999991   0.0000000000000000   0.0000000000000000
   0.0000000000000000  17.9457893372000008   0.0000000000000000
   0.0000000000000000   0.0000000000000000  12.4745693207000006
Cs              Pb              I             
16  16  47  
Direct
  0.4795202060354042  0.2132987789688491  0.2515425462723844  
  0.4915156546799219  0.7132770184991463  0.2411766733756503  
  0.9969346322676645  0.2137354216064141  0.2528023598972265  
  0.9896181350592628  0.7080009334453268  0.2531983661918185  
  0.9980227607998770  0.2790571744923747  0.7522836274305902  
  0.0153324484987155  0.7851551682555760  0.7510120954290020  
  0.5275985163073570  0.2902792844773714  0.7635217009151406  
  0.5177128211152114  0.7962473721850331  0.7544281381551053  
  0.2362418427656595  0.0383957269787631  0.7437076251087595  
  0.2410266856099004  0.5300736546984187  0.7568196456857933  
  0.7421098209910810  0.0370688626845033  0.7511496571525910  
  0.7253103816677816  0.5417105983905204  0.7425672275915381  
  0.2430461961768534  0.4794302574535271  0.2097580820720859  
  0.2683947308451112  0.9502059735285719  0.2513346706747592  
  0.7669487977663195  0.4570693377897573  0.2518759568263731  
  0.7641715652378399  0.9662070413032681  0.2513342866091043  
  0.0083952509531742  0.9956756514654150  0.4978447235285531  
  0.9914516271245400  0.4976165036254822  0.5057357664841100  
  0.4942713385966419  0.0003375132431671  0.4994437683691661  
  0.5049260968767177  0.5080553102743538  0.5027796720247413  
  0.2481134655969275  0.2553727411706360  0.5044519963232003  
  0.2560027681459213  0.7350609199516238  0.5004965995985187  
  0.7476291440814151  0.2433655975024537  0.4983846693579769  
  0.7499559559364709  0.7552690449813235  0.4982300089337255  
  0.0056885998278605  0.9992691472706799  0.9999946283003730  
  0.9928878370367024  0.4973857658397845  0.9974455659967320  
  0.4981668499900845  0.0005242265274648  0.0013195636343365  
  0.5105451957040666  0.5009740290317496  0.0025351554779083  
  0.2537364555604673  0.2507041069578482  0.9966791819607630  
  0.2510613068579264  0.7478361228843412  0.9954149814290900  
  0.7505959780622073  0.2464788263735150  0.0049605794353027  
  0.7543287575334868  0.7535429834673518  0.9996563329173080  
  0.1029690929800213  0.1536512818046156  0.5368575284149497  
  0.0948570392828720  0.6455927346839549  0.5416277455650245  
  0.5841085385065303  0.1549144345313124  0.5364923854025717  
  0.5838254801776811  0.6623174681933194  0.5309139192266791  
  0.4075321711585407  0.8409633035872310  0.4615213706440935  
  0.9010605291040323  0.3424733666121732  0.4630735057397209  
  0.9076941453260829  0.8476478273342856  0.4611880321533182  
  0.3392860565123996  0.0991326908891530  0.4546851845231970  
  0.3262002255669385  0.5424997116387140  0.4719087087757526  
  0.8526692564508364  0.0960803570415459  0.4653455966989832  
  0.8365232985547616  0.5974339114563101  0.4634632516518977  
  0.1390204980724307  0.3927679072007736  0.5618079473505679  
  0.1611324950805556  0.8879547070181310  0.5337764502252820  
  0.6504335184236250  0.3947670385207028  0.5329843490688362  
  0.6559465613945382  0.9091655391769061  0.5366006534043988  
  0.4081111666513065  0.3525471754314604  0.0374266329807398  
  0.4058840643776102  0.8458476574050461  0.0356235889753005  
  0.9074927383618381  0.3409525599392125  0.0397094525533551  
  0.9132484497278222  0.8463649463364471  0.0400499779542782  
  0.0988376893454927  0.1528778485039793  0.9606507082520463  
  0.0961892811920819  0.6455593640128201  0.9627542026246637  
  0.5914123623825370  0.1525326774664388  0.9730147890705925  
  0.5974178215161777  0.6575235356505794  0.9614708678939328  
  0.1471668627833456  0.3952702015146647  0.9509492324976999  
  0.1608777241872885  0.9021330336847309  0.9580728030106858  
  0.6662149612560985  0.4055670065684228  0.9671744164780206  
  0.6584762295920615  0.9066206711371581  0.9648466029288484  
  0.3408875300527240  0.0955398040969078  0.0438773827761163  
  0.3551769546666246  0.6014901717616961  0.0231466185078347  
  0.8488273677819780  0.0967474124106187  0.0379021583461952  
  0.8411856297050870  0.5971927552406580  0.0398300508740854  
  0.4732433943900202  0.4984711874353411  0.7526125822256320  
  0.4605614295037752  0.0032982986660379  0.7507455411840923  
  0.9459525771069150  0.4928876951280906  0.7521392802358232  
  0.9703662131115728  0.9986938047201100  0.7487036508490442  
  0.0471998135098754  0.0042066142180494  0.2492589772680459  
  0.0223530796780243  0.4945483486107976  0.2522544645288032  
  0.5357388975900599  0.0024174114974458  0.2507873912122979  
  0.5403400026118130  0.5023683951006533  0.2536517193557218  
  0.2219593952118348  0.2683837512602897  0.2507098288731388  
  0.2214768042584083  0.7332324200761304  0.2490483352611506  
  0.7069118431140433  0.2477734728575032  0.2514585976280110  
  0.7143690126769096  0.7572566900268244  0.2490166743464340  
  0.3028981458183841  0.2486128391712354  0.7480875201532783  
  0.2954965967253123  0.7395554654401170  0.7480634837750368  
  0.7740366751292883  0.2483787212907568  0.7517097418657073  
  0.7873857795132740  0.7505227870888904  0.7486257964209619  
Cs              Pb              I             
   1.0000000000000000     
  16.8565235137999991   0.0000000000000000   0.0000000000000000
   0.0000000000000000  17.9457893372000008   0.0000000000000000
   0.0000000000000000   0.0000000000000000  12.4745693207000006
Cs              Pb              I             
16  16  47  
Direct
  0.4792404986222601  0.2143539594239966  0.2516506252659772  
  0.4930474116003367  0.7157440731929545  0.2395950859263276  
  0.9967511915990325  0.2140177004393605  0.2530125561750042  
  0.9903925314822722  0.7082206960730340  0.2528371126765005  
  0.9959841376896220  0.2776145882683348  0.7545429691555543  
  0.0153731432531420  0.7848787225899981  0.7506473455646817  
  0.5267065081468014  0.2915579103300955  0.7634167415637096  
  0.5176613108976648  0.7976133878565921  0.7566778673607806  
  0.2358973163877832  0.0395545128494360  0.7437744730788729  
  0.2429786865977275  0.5290109719248571  0.7527887907885554  
  0.7420293036095652  0.0373717801347969  0.7513448143428504  
  0.7248317222378357  0.5422162951443079  0.7426918205656539  
  0.2415640686821844  0.4815871970379693  0.2052268722165413  
  0.2690004842569380  0.9513810278111742  0.2508664722330884  
  0.7679932641012933  0.4568875797468370  0.2511612132510125  
  0.7642422434007454  0.9666960781419117  0.2516724821083919  
  0.0074436465222622  0.9971877542637960  0.4975797731709685  
  0.9900203196308500  0.4983155491750875  0.5068526415029894  
  0.4939403840368659  0.0020811550698530  0.4995564825952078  
  0.5099957557491467  0.5110020880421132  0.5034412796838733  
  0.2465198372344363  0.2590226540147023  0.5036786594329067  
  0.2549538445595806  0.7412456587724127  0.5019561818419267  
  0.7471584694887456  0.2431163889869681  0.4977242464221955  
  0.7499101397945158  0.7569143426366490  0.4989696049475418  
  0.0057082881092103  0.9993522171070560  0.0000812630128336  
  0.9927431559797771  0.4973937427997061  0.9976211851077410  
  0.4982707993381629  0.0009831157271349  0.0014176917308502  
  0.5113588314575058  0.5010082022829664  0.0036524859484615  
  0.2536091428385055  0.2513635654947707  0.9959939657181522  
  0.2510599984791513  0.7478113898508989  0.9954495142270454  
  0.7502917431543294  0.2463542670008776  0.0047362537022200  
  0.7544496516835498  0.7536455023449479  0.9997988125238690  
  0.1025172088666545  0.1559352104512989  0.5361500144054957  
  0.0969504628849941  0.6445577697768344  0.5409423908677995  
  0.5836914132894333  0.1557116004295854  0.5368397116839791  
  0.5836638212784963  0.6698168750642380  0.5313863492237929  
  0.4072213853879014  0.8425806247554223  0.4612878882631828  
  0.8995105475229381  0.3432352024368276  0.4633464863724537  
  0.9093404053590263  0.8482007948622443  0.4609561249162260  
  0.3390726628927611  0.1012988039215306  0.4547285528294369  
  0.3316048551385894  0.4862021193366751  0.4746952832384224  
  0.8523387507726250  0.0970753345253686  0.4653733939586377  
  0.8350601548450749  0.5984992407122324  0.4637378422508248  
  0.1317479576357699  0.3898591921086538  0.5681259383441311  
  0.1607114595455488  0.8897809678709382  0.5333743078931413  
  0.6482834580611411  0.3943152475753198  0.5322365219450084  
  0.6557546408051337  0.9102629662700242  0.5368002914319429  
  0.4079903711371745  0.3530625388923609  0.0368180418916512  
  0.4055973882234333  0.8464415492154472  0.0353352124486258  
  0.9074923901727303  0.3407069461031408  0.0396728862822479  
  0.9134252744297731  0.8464859158996028  0.0399917609838819  
  0.0989872765350596  0.1529346274242873  0.9609575118691694  
  0.0963603177624922  0.6454562750470269  0.9629478183271332  
  0.5909696572496337  0.1529912294052942  0.9724145979957945  
  0.5976494145425200  0.6580597635620005  0.9617399181513716  
  0.1469010195852369  0.3957675707683119  0.9488742956813001  
  0.1608173833083844  0.9021005680638987  0.9576341849549674  
  0.6665439025939461  0.4055637130308929  0.9669629097089338  
  0.6585577214052628  0.9068606414371263  0.9649619049716168  
  0.3409928280095849  0.0961422317232117  0.0433536452050129  
  0.3561857901571830  0.6018466142381135  0.0213629411534004  
  0.8488560392099065  0.0967316614905096  0.0377864893504628  
  0.8411622074899391  0.5973853629057873  0.0398231783318474  
  0.4762393900887937  0.5012040206919355  0.7539167561432089  
  0.4602339634268833  0.0037139723108410  0.7507895397475580  
  0.9446743851478100  0.4928640419499786  0.7533245468371417  
  0.9703071417832431  0.9989358816540130  0.7485879206072847  
  0.0473617662963489  0.0042911205537237  0.2491938275734452  
  0.0216290178678343  0.4945302928041519  0.2530993192079832  
  0.5357449904691921  0.0028001471273624  0.2507935005575205  
  0.5433901516495950  0.5053217642862250  0.2538976481861956  
  0.2210466052580615  0.2691341896284211  0.2497506506812425  
  0.2238212207089488  0.7322541944789468  0.2497452447053572  
  0.7064070026462669  0.2477941724062285  0.2509381052168260  
  0.7154701938613940  0.7575448652987521  0.2490469529860569  
  0.3023028474720256  0.2487871296817248  0.7470421769141879  
  0.2960921977175581  0.7391139437313782  0.7483714885482285  
  0.7726992686229129  0.2488933275538882  0.7512761281574702  
  0.7877125225427134  0.7508561831253604  0.7486960680687466  
Cs              Pb              I             
   1.0000000000000000     
  16.8565235137999991   0.0000000000000000   0.0000000000000000
   0.0000000000000000  17.9457893372000008   0.0000000000000000
   0.0000000000000000   0.0000000000000000  12.4745693207000006
Cs              Pb              I             
16  16  47  
Direct
  0.4779785513800605  0.2161175205027690  0.2542073813051985  
  0.4944041951687344  0.7176813606223186  0.2392956559487402  
  0.9960209155979906  0.2144205357974911  0.2541422911174087  
  0.9907357555088392  0.7087380338910797  0.2526281833526893  
  0.9953869431423020  0.2774711330826271  0.7547999483043834  
  0.0156120788864275  0.7850261508974974  0.7490805869488463  
  0.5241667771488050  0.2929506504184315  0.7610709426116666  
  0.5179690319454994  0.7976996067142672  0.7564139434856327  
  0.2350738275268363  0.0404105846693750  0.7434699255373368  
  0.2442525956586968  0.5274307310961845  0.7485958219560713  
  0.7423287710325789  0.0382515341686234  0.7517243748831542  
  0.7245770224691411  0.5419131635741928  0.7418514803143946  
  0.2442748575478108  0.4805372637518035  0.2128481417924807  
  0.2693929728107088  0.9522041883189621  0.2517565417989064  
  0.7657265208404600  0.4582621962937474  0.2507818182506704  
  0.7649392910894903  0.9666797369670985  0.2531373164575075  
  0.0079117889802049  0.9992803465491920  0.4978452844736161  
  0.9890621812954520  0.4993756881519558  0.5052797859899230  
  0.4939167183495458  0.0028989463854938  0.5002064076735362  
  0.5066063127042348  0.5112534986408377  0.5017947749805702  
  0.2487594251929284  0.2630462634274386  0.5030046445895243  
  0.2560022913395091  0.7435492099075292  0.5026896624227092  
  0.7458646370108080  0.2440684873315899  0.4969321147142611  
  0.7501838645166858  0.7574946980385967  0.5000575247457743  
  0.0057470921770407  0.9998010345415480  0.0003315124795643  
  0.9935378379011242  0.4980654570326344  0.9968657916641700  
  0.4986634847070189  0.0019242007362770  0.0017452223323051  
  0.5100334708643568  0.5016813447600890  0.0024148695505617  
  0.2533752758555854  0.2516616080016178  0.9961534077847941  
  0.2510646290671558  0.7484663249146699  0.9957632009398382  
  0.7499717710767010  0.2469805635648774  0.0043002676294431  
  0.7545089643308386  0.7536632624507856  0.0000199649819678  
  0.1021276614995033  0.1564985435536201  0.5362928137800206  
  0.0995979798929433  0.6431682241987392  0.5405833152436216  
  0.5836316564368877  0.1562594623632468  0.5371953178575529  
  0.5868137178055109  0.6703544881432479  0.5320001841632283  
  0.4083335440865827  0.8429332591763357  0.4613130966889311  
  0.8968167422344623  0.3460620808325428  0.4611567987193552  
  0.9107934174148599  0.8490186835741673  0.4609569461158456  
  0.3396205363988866  0.1024018302507770  0.4564814392126774  
  0.3432698638774391  0.4341621673000176  0.4767038279884739  
  0.8517510775842414  0.0987793370777949  0.4672500279981331  
  0.8347425682633804  0.5990793251398614  0.4633173869155593  
  0.1288830836225335  0.3895210477964045  0.5685438588874153  
  0.1602158686233954  0.8906056373296564  0.5330131003131848  
  0.6428939572346110  0.3962871862650249  0.5289776246458645  
  0.6562865555665675  0.9108439124523570  0.5371780165860682  
  0.4077773053429792  0.3532724499678834  0.0365114243240457  
  0.4055957329418807  0.8476325611065120  0.0345343870364987  
  0.9065215920877969  0.3424325381081154  0.0411849685698682  
  0.9133391748770310  0.8469024026408014  0.0399228823547966  
  0.0980834162319243  0.1538792079372246  0.9618354339897596  
  0.0971637502089480  0.6462244273352123  0.9612506939988591  
  0.5901972192006527  0.1544040539405023  0.9706031643106288  
  0.5976897165565282  0.6582122873521422  0.9619668876560069  
  0.1486300179763598  0.3974420398599356  0.9499844538164235  
  0.1607546476916008  0.9025025879738749  0.9575994450015333  
  0.6654681695325906  0.4058007725889713  0.9671293281420777  
  0.6588459063827528  0.9070566130496771  0.9653407357212864  
  0.3409582433111585  0.0963148144882898  0.0431610188954761  
  0.3547575898175999  0.6018343180858223  0.0233789819370597  
  0.8485919677021136  0.0970646577342403  0.0382717786635714  
  0.8414345865756353  0.5974835461128433  0.0396005775962379  
  0.4758017789703924  0.5051560766381937  0.7522559081133778  
  0.4597819064642887  0.0039336204838567  0.7513512741184051  
  0.9448653236769834  0.4936066104218323  0.7523545627094489  
  0.9702378320415064  0.9990201460979981  0.7488508651696506  
  0.0474531568757043  0.0044753593650814  0.2491266067670502  
  0.0233124716551385  0.4952785310226104  0.2523748842175142  
  0.5359985847507027  0.0041411753386920  0.2514111036575808  
  0.5403278354244041  0.5071121452206112  0.2524336115785837  
  0.2201337422154006  0.2676748778932559  0.2488825718705253  
  0.2240747978488810  0.7325583482086735  0.2501338318830657  
  0.7059011733919458  0.2479224589748973  0.2503304718199044  
  0.7167584170551238  0.7568082551456706  0.2493760530831934  
  0.3013198943304031  0.2490041411103943  0.7474471064211073  
  0.2965515487824189  0.7384706968786093  0.7488378021196264  
  0.7720408031238760  0.2501829355696849  0.7506308380213728  
  0.7880147979547774  0.7506565164687922  0.7492593532142815  
Cs              Pb              I             
   1.0000000000000000     
  16.8565235137999991   0.0000000000000000   0.0000000000000000
   0.0000000000000000  17.9457893372000008   0.0000000000000000
   0.0000000000000000   0.0000000000000000  12.4745693207000006
Cs              Pb              I             
16  16  47  
Direct
  0.4753553380286611  0.2195186908499319  0.2592669877970387  
  0.4953245264989823  0.7201875435800507  0.2385130745597049  
  0.9937394222224675  0.2142417556733820  0.2544817141639721  
  0.9910710147834563  0.7084176817144832  0.2520469905269802  
  0.9969569697212179  0.2813739782141418  0.7523453507388348  
  0.0160211470517590  0.7849495461011461  0.7486580199812102  
  0.5210295318255657  0.2955185909465134  0.7562316504499048  
  0.5185143061285702  0.7984130438980513  0.7563630390747617  
  0.2335379048055307  0.0402072619596310  0.7446145405897620  
  0.2428522307586264  0.5269939768110760  0.7510480138636988  
  0.7418171686091199  0.0401371838272039  0.7520359845620970  
  0.7240757887814457  0.5434136621846564  0.7418711016120348  
  0.2479752461385872  0.4763461067653896  0.2282986928948648  
  0.2686666731511140  0.9520831338911664  0.2511595336771997  
  0.7653039160373609  0.4589926125192698  0.2494360395172804  
  0.7653351050905393  0.9670963761582383  0.2541327431331361  
  0.0060249072875780  0.9995563919697680  0.4985692345663617  
  0.9893539931145350  0.4996345412933050  0.5049043907372597  
  0.4948891094062469  0.0030515316799965  0.5006966257691017  
  0.5046427302827803  0.5119682613446717  0.4998317824977088  
  0.2473497679056089  0.2567861376727970  0.5024150251360335  
  0.2567572306409008  0.7448887753178448  0.5041579704565662  
  0.7445675220206293  0.2462072623431954  0.4968005887868890  
  0.7507305723636435  0.7577133862492629  0.4999993409969414  
  0.0053336398541622  0.0004649201816016  0.0007891424228249  
  0.9939379148638180  0.4983023565189822  0.9975635370481239  
  0.4990166693883565  0.0039228887734621  0.0019790721185686  
  0.5077233606252273  0.5024160073757497  0.0013773408018229  
  0.2526109437300270  0.2512833630353765  0.9970700475328735  
  0.2512330896120544  0.7483804847225446  0.9968560947988067  
  0.7488497081684800  0.2482032939040950  0.0034523604024303  
  0.7543043035734956  0.7544428875087565  0.9997319739550130  
  0.0958738172357847  0.1555371470469752  0.5392014996023204  
  0.1017360201939472  0.6425409549435529  0.5413494635162776  
  0.5837748816833003  0.1567740805019701  0.5378721591771550  
  0.5876040269595885  0.6694122599988637  0.5331251916680402  
  0.4094680051418714  0.8435554890491879  0.4623974003072592  
  0.8970908794462644  0.3469098365420801  0.4611375747505719  
  0.9111292198364134  0.8476529300793753  0.4597446942746585  
  0.3387447193975418  0.1000546702152661  0.4566588039036911  
  0.3705717212591552  0.3929685689291236  0.4644519349632207  
  0.8504692564024369  0.1003076458107527  0.4686604420767811  
  0.8351638625071292  0.5995709112973501  0.4627269791150798  
  0.1354469861179259  0.3939194106399755  0.5585450380048114  
  0.1596967826882951  0.8915112357276385  0.5330754629269351  
  0.6432262565340839  0.4011042526502862  0.5265750741750890  
  0.6567088829481479  0.9112008438743314  0.5373838764144098  
  0.4070661088629212  0.3533929154389435  0.0365245430430930  
  0.4054778700100640  0.8488864175679566  0.0337371339405468  
  0.9057543473482140  0.3434646791201639  0.0411431393254241  
  0.9131768639652150  0.8472248043299325  0.0405078270799667  
  0.0959736432142739  0.1553986167524724  0.9610154868215729  
  0.0971244723888001  0.6469207355235247  0.9604830217341568  
  0.5892453664546601  0.1565352422370859  0.9666829271295518  
  0.5970721866980256  0.6583305730303962  0.9618303600823502  
  0.1496660934194421  0.3988622406396111  0.9556836916822646  
  0.1602448129875458  0.9022762165944133  0.9581000228271026  
  0.6635055465997576  0.4064125398238893  0.9647409665289399  
  0.6588645309808501  0.9076456858187767  0.9659805186551118  
  0.3405142413470340  0.0963271257651339  0.0436598782110720  
  0.3510632250079732  0.5991483687606581  0.0280778890827316  
  0.8476121753344803  0.0976758832157632  0.0381172482409041  
  0.8417260378696910  0.5982295306995054  0.0395034233699593  
  0.4722554910854296  0.5075835884026816  0.7497366040650322  
  0.4590418807551797  0.0041433423508932  0.7516000560204343  
  0.9458335384787259  0.4945542605022356  0.7520603445646614  
  0.9693706066365444  0.9976879519858002  0.7498434141018876  
  0.0468855349276419  0.0047107911046024  0.2496916675136849  
  0.0249407992748151  0.4955731796216206  0.2520361521682386  
  0.5365776759209587  0.0059839331406881  0.2515722612949318  
  0.5409949245683527  0.5106133015886257  0.2502869830490251  
  0.2173937598805330  0.2633471590001675  0.2489343769462728  
  0.2242132224145160  0.7333475081569661  0.2513815252788979  
  0.7039754290937527  0.2495547182695715  0.2495953589825700  
  0.7172948382342812  0.7571669084716854  0.2494635250056264  
  0.2979872083213483  0.2486761696021279  0.7483917552327030  
  0.2975612721689506  0.7376365437124902  0.7502512297463199  
  0.7728758226349590  0.2520910879919700  0.7499070087411406  
  0.7893084267861221  0.7519298498479224  0.7493616123999266  
Cs              Pb              I             
   1.0000000000000000     
  16.8565235137999991   0.0000000000000000   0.0000000000000000
   0.0000000000000000  17.9457893372000008   0.0000000000000000
   0.0000000000000000   0.0000000000000000  12.4745693207000006
Cs              Pb              I             
16  16  47  
Direct
  0.4777138150720741  0.2163311976264464  0.2566688738370061  
  0.4934261064593100  0.7205266539466241  0.2386000068925344  
  0.9908442540016429  0.2133718786432904  0.2525666416518387  
  0.9927851494203002  0.7111169292994093  0.2514280106187783  
  0.0045398417837754  0.2867154070253420  0.7509039205336692  
  0.0146960087525796  0.7857372372495764  0.7468774012076259  
  0.5158227804239747  0.2960209241564807  0.7510994037784016  
  0.5195912472149201  0.7971018275308284  0.7538868957615480  
  0.2332601858483476  0.0393264936555754  0.7466253169699708  
  0.2341876195200601  0.5322227894282515  0.7583004527453715  
  0.7408374059919975  0.0419845172140726  0.7515080107010030  
  0.7288363695606287  0.5426502088355770  0.7427154075607713  
  0.2558829763827165  0.4687326613984447  0.2457250080250390  
  0.2673542242836283  0.9530506930184094  0.2502967773075994  
  0.7605313844549453  0.4608150604969283  0.2493784406999463  
  0.7654886875547133  0.9673266716643647  0.2539075227227934  
  0.0036318235611131  0.9994425011366590  0.4984213149008671  
  0.9937580927796390  0.5004923192609747  0.5041045750364821  
  0.4982610863244940  0.0037245984371872  0.5009310667466732  
  0.4991454261267829  0.5093450469897663  0.4991280704369400  
  0.2482494728877364  0.2519968922812214  0.5012334650104340  
  0.2583941096123059  0.7472873172895118  0.5050191317497034  
  0.7460853540238543  0.2500709194590615  0.4982250527168722  
  0.7499827334592211  0.7549554618946269  0.4993571719490751  
  0.0021791516293848  0.0006173774898719  0.0001240679337638  
  0.9947467656954485  0.5000270940685019  0.0012746574297326  
  0.4993451826636600  0.0046175191675999  0.0007916626076900  
  0.5026678903003933  0.5020823171245065  0.9983045288797092  
  0.2510589701499167  0.2507024560976427  0.9986655117465910  
  0.2507756566806696  0.7489663209025244  0.9981951526622871  
  0.7479250248615456  0.2504293639162309  0.0021914645480514  
  0.7518628665273318  0.7542893079761798  0.9996213022917890  
  0.0940227436989407  0.1548110561972092  0.5404795195031998  
  0.1024712921098273  0.6465250907564364  0.5392123886810251  
  0.5871095793774952  0.1579764866310444  0.5389435760564610  
  0.5877152859654985  0.6638401766472860  0.5329184016473045  
  0.4114553739204983  0.8452997048955393  0.4633780660419398  
  0.9015648079200492  0.3479330416296363  0.4610351133512781  
  0.9089710390188779  0.8469966924315498  0.4605445722720539  
  0.3390216067973171  0.0966229108374055  0.4590803582545971  
  0.3933710000565560  0.3645613217260790  0.4589431230749563  
  0.8491341711180905  0.1018766717961551  0.4678583719850632  
  0.8382644086359572  0.5985515392908137  0.4613449373285568  
  0.1485412289648926  0.4013199612548186  0.5440346116291669  
  0.1589381011524389  0.8929763733654859  0.5326961179435190  
  0.6448044148627944  0.4058136909734427  0.5282499515166778  
  0.6582490331913607  0.9094240470664987  0.5387229094275250  
  0.4069408771063666  0.3504343254206749  0.0362166343866473  
  0.4057109103069561  0.8495523660198164  0.0324582999090616  
  0.9054156407077477  0.3454351811978930  0.0411011409850062  
  0.9102762541437315  0.8473017041027996  0.0405219036134840  
  0.0945578914487254  0.1548364508858159  0.9600334882964302  
  0.0931876671570751  0.6517601249544326  0.9614253661691523  
  0.5891501535059972  0.1578668368086912  0.9632463923784151  
  0.5949894999871779  0.6563832956009656  0.9609570052863822  
  0.1517593973851583  0.4011962776051429  0.9646066453644749  
  0.1583325003338228  0.9025764734592604  0.9606645949987146  
  0.6599490321509931  0.4071025251510911  0.9624005173088941  
  0.6585194706963385  0.9080184453752480  0.9642354336106821  
  0.3404353488785479  0.0961854461429340  0.0429607743294066  
  0.3448161559138590  0.5961380242026743  0.0336218533100202  
  0.8456280675356426  0.0990389677302551  0.0371151584619593  
  0.8410647940568634  0.5985560110130913  0.0401858055353329  
  0.4627334178602423  0.5065592688135381  0.7476721264532394  
  0.4595551763626421  0.0034636877253500  0.7506076362495067  
  0.9527212312029573  0.4975994892519257  0.7526115861992754  
  0.9670785367106899  0.9964460845563489  0.7496083244371162  
  0.0437911893777709  0.0035208341147740  0.2494386562199485  
  0.0304956944446771  0.4991708182796206  0.2525829932162192  
  0.5372460208301895  0.0053297440532407  0.2507592465893521  
  0.5336461583301585  0.5102384567883876  0.2488208966505327  
  0.2144935998702852  0.2578050532028021  0.2497019188833481  
  0.2260378127629979  0.7360388103830988  0.2528803903678879  
  0.7059828992689093  0.2505836894472011  0.2497872370801676  
  0.7152347744519312  0.7576261364158120  0.2493279533245259  
  0.2921432158391753  0.2492862822549829  0.7494451041792032  
  0.2977649205049616  0.7386349827408180  0.7518412918699389  
  0.7786743806329711  0.2537187383700564  0.7499119548523988  
  0.7872509841287008  0.7510162140287665  0.7492389160491053  
Cs   Pb    I
1.0
  16.8565235137999991   0.0000000000000000   0.0000000000000000
   0.0000000000000000  17.9457893372000008   0.0000000000000000
   0.0000000000000000   0.0000000000000000  12.4745693207000006
Cs   Pb    I
16  16  47  
Direct
  0.4824338380000000  0.2068579580000000  0.2500683320000000  
  0.4903459450000000  0.7160337369999999  0.2384023460000000  
  0.9876450030000000  0.2137279910000000  0.2513301470000000  
  0.9961575510000000  0.7148325820000000  0.2521520960000000  
  0.0115970500000000  0.2910986960000000  0.7522016770000000  
  0.0114983300000000  0.7854820170000000  0.7463045470000000  
  0.5116377790000000  0.2910770140000000  0.7496465430000000  
  0.5206756070000000  0.7931472550000001  0.7506867840000000  
  0.2310076160000000  0.0372241560000000  0.7471735900000001  
  0.2234282580000000  0.5351721910000000  0.7633031340000000  
  0.7417033370000000  0.0420219250000000  0.7500089440000000  
  0.7394420779999999  0.5391450679999999  0.7457153300000000  
  0.2673920350000000  0.4595508030000000  0.2525140210000000  
  0.2665451650000000  0.9519017230000000  0.2500023090000000  
  0.7557118160000000  0.4643493210000000  0.2499402750000000  
  0.7648976280000001  0.9647104710000000  0.2523603560000000  
  0.0023095420000000  0.0000965570000000  0.4985198030000000  
  0.9999739420000000  0.5006520700000000  0.4996501950000000  
  0.4994372340000000  0.0006036150000000  0.5007026449999999  
  0.4971277280000000  0.5021434150000000  0.5012542180000000  
  0.2501683470000000  0.2486492600000000  0.5013043490000000  
  0.2583073800000000  0.7475612350000000  0.5062815250000000  
  0.7474049280000000  0.2504605500000000  0.4980162140000000  
  0.7490606410000000  0.7522628500000000  0.4984709220000000  
  0.0000574810000000  0.9992165850000000  0.0011024290000000  
  0.9992915570000001  0.5006642080000000  0.0047031590000000  
  0.5006607800000000  0.0008978490000000  0.9980792930000000  
  0.4978756580000000  0.4991066290000000  0.9950384300000000  
  0.2501841830000000  0.2459860720000000  0.0012737680000000  
  0.2516320880000000  0.7482719340000000  0.9990978830000000  
  0.7483984380000001  0.2510429880000000  0.9999782870000000  
  0.7496510170000000  0.7510595130000000  0.9999920430000000  
  0.0913950940000000  0.1562265330000000  0.5397293690000000  
  0.1013018500000000  0.6497385170000000  0.5389684370000000  
  0.5915705120000000  0.1538438220000000  0.5390454010000000  
  0.5890673440000000  0.6558424950000000  0.5323875200000000  
  0.4136054590000000  0.8422416960000000  0.4635711730000000  
  0.9019896540000000  0.3512896880000000  0.4603233840000000  
  0.9067186630000000  0.8470800210000000  0.4610096940000000  
  0.3391359360000000  0.0925084190000000  0.4615479550000000  
  0.4065868390000000  0.3470086380000000  0.4609572990000000  
  0.8476985800000000  0.1015148520000000  0.4646218380000000  
  0.8449201200000001  0.5998381480000000  0.4597460770000000  
  0.1586304610000000  0.4044016970000000  0.5357569660000000  
  0.1578371840000000  0.8927998780000000  0.5313343210000000  
  0.6472889280000000  0.4065399280000000  0.5342448580000000  
  0.6592645680000000  0.9074306330000000  0.5389690100000000  
  0.4065494130000000  0.3447638640000000  0.0373381410000000  
  0.4077988620000000  0.8468188490000000  0.0299135050000000  
  0.9033788780000001  0.3498256250000000  0.0428572410000000  
  0.9063356160000000  0.8461184090000000  0.0410170600000000  
  0.0916888560000000  0.1529603490000000  0.9609120860000000  
  0.0916142940000000  0.6558352629999999  0.9656122310000000  
  0.5920797630000000  0.1543518830000000  0.9604793450000000  
  0.5925644040000000  0.6522929400000000  0.9603602230000000  
  0.1541235990000000  0.3992794500000000  0.9736509870000000  
  0.1557829810000000  0.9000346120000000  0.9621307440000000  
  0.6566723010000000  0.4053387220000000  0.9581221550000000  
  0.6593632360000000  0.9064279660000000  0.9610779110000000  
  0.3406417780000000  0.0919668380000000  0.0396549320000000  
  0.3402757440000000  0.5923162120000000  0.0353945710000000  
  0.8450723420000000  0.0994011450000000  0.0388573730000000  
  0.8440762970000000  0.5988771200000000  0.0414887800000000  
  0.4509944020000000  0.5012807450000000  0.7459778400000000  
  0.4583494230000000  0.0000295310000000  0.7493810570000000  
  0.9661973890000000  0.5018473240000000  0.7523386880000000  
  0.9670109460000000  0.9961934760000000  0.7498382960000000  
  0.0426782110000000  0.0032166410000000  0.2497858700000000  
  0.0428100150000000  0.5044286000000000  0.2521681360000000  
  0.5362465580000000  0.9973692140000000  0.2495796100000000  
  0.5260663540000000  0.5049266420000000  0.2479319230000000  
  0.2140346240000000  0.2506045710000000  0.2512274170000000  
  0.2296580530000000  0.7359625560000000  0.2542053850000000  
  0.7075283530000001  0.2531204690000000  0.2491197040000000  
  0.7118639510000000  0.7550830120000001  0.2493075030000000  
  0.2862240560000000  0.2483810310000000  0.7511025750000000  
  0.2979336870000000  0.7383014280000000  0.7527632600000000  
  0.7854580460000000  0.2533503010000000  0.7492404420000000  
  0.7852638270000000  0.7495324030000000  0.7491816670000000  
