Cs   Pb    I
   1.0000000000000000     
  16.8565235137999991   0.0000000000000000   0.0000000000000000
   0.0000000000000000  17.9457893372000008   0.0000000000000000
   0.0000000000000000   0.0000000000000000  12.4745693207000006
Cs   Pb    I
16  16  47  
Direct
  0.4827691905432370  0.2078563870077090  0.2507029296170490  
  0.4870306874126340  0.7101567743643930  0.2433937680558670  
  0.9904990606737480  0.2136136502792570  0.2506724283229000  
  0.9917789598304050  0.7150024287286950  0.2526626324380250  
  0.0107709490244048  0.2891828303170390  0.7499028383827880  
  0.0103704422971092  0.7890274732733150  0.7477717134005030  
  0.5182881409579140  0.2885893101575260  0.7557330712605860  
  0.5199868529522010  0.7909531942682410  0.7483391035779550  
  0.2349924238477430  0.0384401796033700  0.7479264195665820  
  0.2260343407488530  0.5383631316026440  0.7583251629462350  
  0.7392502767320720  0.0413888688138115  0.7503567617358580  
  0.7392755976816620  0.5384134018105510  0.7465515318670410  
  0.2633815018465170  0.4624660367102890  0.2470489520882210  
  0.2667306003127120  0.9545910211583361  0.2499904673831570  
  0.7551826585887510  0.4653205238787240  0.2519700652012280  
  0.7645049658468041  0.9631220565237160  0.2512261169103670  
  0.0016934294531481  0.0002725128237060  0.4982230005623050  
  0.0004224438716562  0.5010027150229560  0.4994493615500200  
  0.4996819307560190  0.9997899194717310  0.5001706372172590  
  0.4948796535015420  0.4999397009581300  0.5042704574167660  
  0.2511043333843330  0.2499930697755990  0.5017360103864310  
  0.2548298460672310  0.7488759820889040  0.5039167120904010  
  0.7485171049289930  0.2504989461536340  0.4985717159031470  
  0.7480686718859320  0.7512092604649540  0.4988694142635100  
  0.0004132597077628  0.0000045413746506  0.0003274712285020  
  0.9994732288383760  0.5009755356754720  0.0025013227674862  
  0.5001312352826940  0.9992556771490650  0.9993345051062190  
  0.4984132439052050  0.4989791719572590  0.9975325905767320  
  0.2510853715756700  0.2476496312861580  0.9989389867451880  
  0.2506978940774540  0.7494284056582640  0.9985381994207220  
  0.7498031450897640  0.2512187891215730  0.0019625391518616  
  0.7494525622692340  0.7504798575505300  0.0004569161827135  
  0.0959985035638695  0.1560517816007730  0.5371871420142330  
  0.0968418208171400  0.6531312093544980  0.5390998513911920  
  0.5908973970935421  0.1548144692722460  0.5369634267879210  
  0.5904115152846000  0.6500808074801370  0.5327228389089950  
  0.4125791322770100  0.8424197314871190  0.4625868014944530  
  0.9041621910016250  0.3499190349853410  0.4605774419898690  
  0.9044785329728530  0.8488000651261840  0.4627656241124210  
  0.3410601098664470  0.0944786148392538  0.4612453508052570  
  0.3768306806355920  0.4523910195447270  0.4624667211265390  
  0.8467216278160660  0.1007239967606570  0.4620422917119950  
  0.8449078705075190  0.5991868882093460  0.4611827938441880  
  0.1598607753454150  0.4049915487992880  0.5343619992166210  
  0.1577969717743600  0.8976426336523819  0.5344371426386370  
  0.6487041943162520  0.4042268236043970  0.5365468686063580  
  0.6588134223494820  0.9067470280458280  0.5383050240027391  
  0.4082048334727160  0.3438013151999260  0.0366192319348855  
  0.4084914039342920  0.8448879441494910  0.0338330663031883  
  0.9053885097070590  0.3488564116774100  0.0416111952165608  
  0.9062057937829520  0.8468070784963190  0.0396250837907388  
  0.0929744057028756  0.1535793271271540  0.9601671020770510  
  0.0911851799867662  0.6560954601407470  0.9633384204616960  
  0.5941161512774900  0.1523302147306110  0.9658415691071840  
  0.5925102506970670  0.6520319172593080  0.9607608932986270  
  0.1547314966218140  0.4001253911818450  0.9673960066445350  
  0.1567238202827780  0.9020321801512881  0.9609219696479410  
  0.6578150362789970  0.4058542088254310  0.9617209853884250  
  0.6587672982971430  0.9051738860715230  0.9611644288321700  
  0.3415023070158870  0.0931795821927750  0.0383064905867059  
  0.3409012868947560  0.5940748479696720  0.0338663315024590  
  0.8452930525870460  0.0992722595329596  0.0401349720604713  
  0.8434087832096890  0.5977009865568380  0.0404363492935360  
  0.4516002585535760  0.4955970491287330  0.7498021145905300  
  0.4615475466482200  0.9993856894495250  0.7496761127884281  
  0.9653927583850360  0.5000077975174620  0.7510181628113130  
  0.9653279140197030  0.0001494894309815  0.7493070221272971  
  0.0421109159896744  0.0025198194007601  0.2492587973586350  
  0.0400069460894130  0.5046722190080710  0.2509162772122550  
  0.5369235047187360  0.9988459393523210  0.2498364880197170  
  0.5236587642536460  0.4967483026440010  0.2514090583461200  
  0.2182201542266000  0.2523671482282590  0.2502173282862330  
  0.2228847022575810  0.7415348447649850  0.2521080238496510  
  0.7077718962838090  0.2545442009084340  0.2502412353384640  
  0.7101722746970790  0.7530061536788391  0.2496104655038070  
  0.2918931603269930  0.2493403327172810  0.7493429002706410  
  0.2953654033886930  0.7432622719581730  0.7512663192296710  
  0.7846027006791870  0.2522490081920950  0.7503547829390770  
  0.7842952320763390  0.7489933361357760  0.7495312463498111  
