Cs   Pb    I
1.0
  16.8565235137999991   0.0000000000000000   0.0000000000000000
   0.0000000000000000  17.9457893372000008   0.0000000000000000
   0.0000000000000000   0.0000000000000000  12.4745693207000006
Cs   Pb    I
16  16  47  
Direct
  0.4824338380000000  0.2068579580000000  0.2500683320000000  
  0.4903459450000000  0.7160337369999999  0.2384023460000000  
  0.9876450030000000  0.2137279910000000  0.2513301470000000  
  0.9961575510000000  0.7148325820000000  0.2521520960000000  
  0.0115970500000000  0.2910986960000000  0.7522016770000000  
  0.0114983300000000  0.7854820170000000  0.7463045470000000  
  0.5116377790000000  0.2910770140000000  0.7496465430000000  
  0.5206756070000000  0.7931472550000001  0.7506867840000000  
  0.2310076160000000  0.0372241560000000  0.7471735900000001  
  0.2234282580000000  0.5351721910000000  0.7633031340000000  
  0.7417033370000000  0.0420219250000000  0.7500089440000000  
  0.7394420779999999  0.5391450679999999  0.7457153300000000  
  0.2673920350000000  0.4595508030000000  0.2525140210000000  
  0.2665451650000000  0.9519017230000000  0.2500023090000000  
  0.7557118160000000  0.4643493210000000  0.2499402750000000  
  0.7648976280000001  0.9647104710000000  0.2523603560000000  
  0.0023095420000000  0.0000965570000000  0.4985198030000000  
  0.9999739420000000  0.5006520700000000  0.4996501950000000  
  0.4994372340000000  0.0006036150000000  0.5007026449999999  
  0.4971277280000000  0.5021434150000000  0.5012542180000000  
  0.2501683470000000  0.2486492600000000  0.5013043490000000  
  0.2583073800000000  0.7475612350000000  0.5062815250000000  
  0.7474049280000000  0.2504605500000000  0.4980162140000000  
  0.7490606410000000  0.7522628500000000  0.4984709220000000  
  0.0000574810000000  0.9992165850000000  0.0011024290000000  
  0.9992915570000001  0.5006642080000000  0.0047031590000000  
  0.5006607800000000  0.0008978490000000  0.9980792930000000  
  0.4978756580000000  0.4991066290000000  0.9950384300000000  
  0.2501841830000000  0.2459860720000000  0.0012737680000000  
  0.2516320880000000  0.7482719340000000  0.9990978830000000  
  0.7483984380000001  0.2510429880000000  0.9999782870000000  
  0.7496510170000000  0.7510595130000000  0.9999920430000000  
  0.0913950940000000  0.1562265330000000  0.5397293690000000  
  0.1013018500000000  0.6497385170000000  0.5389684370000000  
  0.5915705120000000  0.1538438220000000  0.5390454010000000  
  0.5890673440000000  0.6558424950000000  0.5323875200000000  
  0.4136054590000000  0.8422416960000000  0.4635711730000000  
  0.9019896540000000  0.3512896880000000  0.4603233840000000  
  0.9067186630000000  0.8470800210000000  0.4610096940000000  
  0.3391359360000000  0.0925084190000000  0.4615479550000000  
  0.4065868390000000  0.3470086380000000  0.4609572990000000  
  0.8476985800000000  0.1015148520000000  0.4646218380000000  
  0.8449201200000001  0.5998381480000000  0.4597460770000000  
  0.1586304610000000  0.4044016970000000  0.5357569660000000  
  0.1578371840000000  0.8927998780000000  0.5313343210000000  
  0.6472889280000000  0.4065399280000000  0.5342448580000000  
  0.6592645680000000  0.9074306330000000  0.5389690100000000  
  0.4065494130000000  0.3447638640000000  0.0373381410000000  
  0.4077988620000000  0.8468188490000000  0.0299135050000000  
  0.9033788780000001  0.3498256250000000  0.0428572410000000  
  0.9063356160000000  0.8461184090000000  0.0410170600000000  
  0.0916888560000000  0.1529603490000000  0.9609120860000000  
  0.0916142940000000  0.6558352629999999  0.9656122310000000  
  0.5920797630000000  0.1543518830000000  0.9604793450000000  
  0.5925644040000000  0.6522929400000000  0.9603602230000000  
  0.1541235990000000  0.3992794500000000  0.9736509870000000  
  0.1557829810000000  0.9000346120000000  0.9621307440000000  
  0.6566723010000000  0.4053387220000000  0.9581221550000000  
  0.6593632360000000  0.9064279660000000  0.9610779110000000  
  0.3406417780000000  0.0919668380000000  0.0396549320000000  
  0.3402757440000000  0.5923162120000000  0.0353945710000000  
  0.8450723420000000  0.0994011450000000  0.0388573730000000  
  0.8440762970000000  0.5988771200000000  0.0414887800000000  
  0.4509944020000000  0.5012807450000000  0.7459778400000000  
  0.4583494230000000  0.0000295310000000  0.7493810570000000  
  0.9661973890000000  0.5018473240000000  0.7523386880000000  
  0.9670109460000000  0.9961934760000000  0.7498382960000000  
  0.0426782110000000  0.0032166410000000  0.2497858700000000  
  0.0428100150000000  0.5044286000000000  0.2521681360000000  
  0.5362465580000000  0.9973692140000000  0.2495796100000000  
  0.5260663540000000  0.5049266420000000  0.2479319230000000  
  0.2140346240000000  0.2506045710000000  0.2512274170000000  
  0.2296580530000000  0.7359625560000000  0.2542053850000000  
  0.7075283530000001  0.2531204690000000  0.2491197040000000  
  0.7118639510000000  0.7550830120000001  0.2493075030000000  
  0.2862240560000000  0.2483810310000000  0.7511025750000000  
  0.2979336870000000  0.7383014280000000  0.7527632600000000  
  0.7854580460000000  0.2533503010000000  0.7492404420000000  
  0.7852638270000000  0.7495324030000000  0.7491816670000000  
