Cs   Pb    I
   1.0000000000000000     
  16.8565235137999991   0.0000000000000000   0.0000000000000000
   0.0000000000000000  17.9457893372000008   0.0000000000000000
   0.0000000000000000   0.0000000000000000  12.4745693207000006
Cs   Pb    I
16  16  47  
Direct
  0.4832163272675275  0.2091876256846592  0.2515490597731261  
  0.4826103439628081  0.7023208241835625  0.2500489974637075  
  0.9943044709054242  0.2134611959849082  0.2497954700867517  
  0.9859408382709411  0.7152288910336049  0.2533433476887176  
  0.0096694810569458  0.2866283427397625  0.7468377202265029  
  0.0088665920265581  0.7937547483044051  0.7497279352678501  
  0.5271552902351361  0.2852723717009168  0.7638484422747108  
  0.5190685142218244  0.7880277799592385  0.7452088630152390  
  0.2403055009780694  0.0400615444078593  0.7489301923220235  
  0.2295091177473004  0.5426177190728141  0.7516878682078947  
  0.7359795297081815  0.0405447938988804  0.7508205187169943  
  0.7390536239238946  0.5374378468912755  0.7476664676897453  
  0.2580341243085339  0.4663530149906894  0.2397621935391810  
  0.2669778473963325  0.9581767520361092  0.2499746785606778  
  0.7544771153737351  0.4666154610503465  0.2546764521362129  
  0.7639814163092300  0.9610041705553152  0.2497137981241837  
  0.0008719460573648  0.0005071205886339  0.4978272639787186  
  0.0010204463671919  0.5014702417202215  0.4991815836167328  
  0.5000081930973815  0.9987049921006919  0.4994612935069588  
  0.4918822208368995  0.4970014155689526  0.5082921099724689  
  0.2523523152301120  0.2517848161430722  0.5023115589016585  
  0.2501931341568706  0.7506289782074722  0.5007636282109443  
  0.7500000075009733  0.2505501410251648  0.4993123851073383  
  0.7467460464005190  0.7498044744182333  0.4994007372815217  
  0.0008876313180874  0.0010551498741774  0.9992941941998302  
  0.9997154579561920  0.5013906392427664  0.9995655411241423  
  0.4994251756596017  0.9970661146811672  0.0010081212478256  
  0.4991300251121603  0.4988092292335976  0.0008581380123535  
  0.2522869563432544  0.2498677103343804  0.9958259450721257  
  0.2494523021807132  0.7509703678692878  0.9977919546483592  
  0.7516760878761153  0.2514531906169896  0.0046082086876737  
  0.7491879559615414  0.7497069836179108  0.0010767470929794  
  0.1021363829823442  0.1558187797351618  0.5337975060332057  
  0.0908951152399707  0.6576547991604852  0.5392750705794277  
  0.5899999105516058  0.1561086656352264  0.5341874611717827  
  0.5922037436640815  0.6423985574536317  0.5331699307876618  
  0.4112106966463728  0.8426571121366284  0.4612743061537286  
  0.9070589070037968  0.3480914976324596  0.4609161859763471  
  0.9014916929366686  0.8510934572944521  0.4651068642623091  
  0.3436256750216860  0.0971055426249359  0.4608418785456078  
  0.3371558028164100  0.5929008616043808  0.4644792839619163  
  0.8454190249041467  0.0996695231081961  0.4586028966613302  
  0.8448915378508874  0.5983185418218109  0.4630984163031195  
  0.1615011944726421  0.4057780178650195  0.5325020435054423  
  0.1577433554734906  0.9040996411888893  0.5385742381568279  
  0.6505912160712388  0.4011426844102438  0.5396162160814929  
  0.6582118948154485  0.9058355547735744  0.5374197093397304  
  0.4104120607696543  0.3425179167998113  0.0356606865147290  
  0.4094147931800102  0.8423134043488008  0.0390591480407786  
  0.9080680186498358  0.3475641272472885  0.0399498008386384  
  0.9060326974935394  0.8477253044913836  0.0377691155117453  
  0.0946884719733700  0.1544046312966772  0.9591737901797746  
  0.0906130279691230  0.6564423896617572  0.9603066730772963  
  0.5968313356474941  0.1496346570381035  0.9729912012500840  
  0.5924380462931704  0.6516838869383998  0.9612951203634567  
  0.1555420267842112  0.4012533127576438  0.9590560328372627  
  0.1579782726598053  0.9046956043530159  0.9593102705118658  
  0.6593386833176774  0.4065415245926658  0.9665194259063556  
  0.6579727146933098  0.9035017795002467  0.9612797859417362  
  0.3426496790370554  0.0947965744498043  0.0365085687022891  
  0.3417353440877618  0.5964196959292631  0.0318286788390785  
  0.8455873333697955  0.0991004122435763  0.0418384374744246  
  0.8425187648226089  0.5961328086326003  0.0390331083515794  
  0.4524080672916507  0.4880187879670529  0.7549011473779030  
  0.4658117115125024  0.9985272340488792  0.7500695205063515  
  0.9643199175650663  0.4975550955407665  0.7492574625597234  
  0.9630838713793322  0.0054241740056408  0.7485986569636914  
  0.0413545226425962  0.0015907239351190  0.2485560338367966  
  0.0362695208752917  0.5049970443521764  0.2492471321619247  
  0.5378261003437119  0.0008149064887551  0.2501789920459831  
  0.5204486445918326  0.4858438501693218  0.2560452388076125  
  0.2238008611954039  0.2547172511992906  0.2488705433345121  
  0.2138535679343696  0.7489645631183206  0.2493115423158438  
  0.7080966206622377  0.2564425101197039  0.2517366104564289  
  0.7079167062931961  0.7502370092506540  0.2500144155089141  
  0.2994519660963414  0.2506194016736719  0.7469966672981558  
  0.2919410252402707  0.7498767305690698  0.7492703982025585  
  0.7834622402514475  0.2507806177815559  0.7518405708578428  
  0.7830037721781382  0.7482745803168188  0.7499973521495834  
